pymatgen with grid density = 1290 / number of atoms
0
Gamma
5 5  4
