Zn2 O2
1.0
   3.249	0	0
   -1.6245	2.813716537	0
   0	0	5.204898
   Zn    O
    2    2
Direct
       0.666666700   0.333333000   0.499951636
       0.333333000   0.666666700  -0.000048364
       0.666666700   0.333333000   0.881048364
       0.333333000   0.666666700   0.381048364
