This file is generated by VASPKIT code  
    1.000000000000000     
    12.9960000000000004    0.0000000000000000    0.0000000000000000
     0.0000000000000000   11.2548661479999996    0.0000000000000000
     0.0000000000000000    0.0000000000000000   10.4097960000000000
   Zn   O 
    64    63
Direct
  0.0011999582634120  0.1659114660321095  0.4994248547624288
  0.0003732833855670  0.1666717815313782 -0.0001154777305748
  0.0025386187306349  0.6663420999258290  0.4993019005448663
  0.0005356072925762  0.6667282502628069  0.9994649554618772
  0.0001754032769097  0.3328375474895899  0.2497455341408036
  0.0001739933509925  0.3330387935249290  0.7498525682549201
  0.0002605301622265  0.8330455760199241  0.2499070679322807
  0.0002029628385341  0.8330894654581150  0.7494341233730697
  0.1252419526797596  0.4172676918174029  0.5009521008770106
  0.1252419034706439  0.5825079068226150  0.2507043016382046
  0.1257697891360058  0.0829431638480251  0.7489773212676699
  0.1255365718706299  0.4174582349919431  0.9985238235754242
  0.1256435712167343  0.0826723511651223  0.2505316477835502
  0.1258316459321878  0.9164222187059617  0.9992854903776945
  0.1269180006428896  0.5845036604598853  0.7485839906784266
  0.1277835978742791  0.9144610390609534  0.4993141306957669
  0.2502825043822474  0.8307775967070145  0.7483827895475605
  0.2501516035283732  0.1677118821738552  0.9994469550401348
  0.2498323801389434  0.3338318731501733  0.2505675550485101
  0.2507534635205567  0.8328143527764653  0.2503785651802196
  0.2512061616934537  0.6659375806720103  0.0054102270652595
  0.2517064528897065  0.1707983332133391  0.4996010658927967
  0.2517653514182224  0.3348711277686524  0.7486238648147648
  0.2635528489880779  0.6576674185457660  0.4931508505116997
  0.3750032583464241  0.5833394579028996  0.7533350468347463
  0.3750099926967626  0.4355983770528222  0.4931476794923644
  0.3750052413684973  0.9174064473801042  0.5006446655951725
  0.3750097528118860  0.5831792801677713  0.2741371148459282
  0.3749983696593826  0.4181906233389824  0.0053836165557904
  0.3750021284794424  0.0830366306739181  0.2492336687118436
  0.3749996316746339  0.0831490589801206  0.7499776490680390
  0.3749904818629225  0.9160544622358370  0.9981396647414291
  0.4864443997823512  0.6576773919733115  0.4931493683511425
  0.4982230899292205  0.3348619958010619  0.7486205026457601
  0.4983089712135721  0.1707980121497936  0.4995862501220984
  0.4987876916518343  0.6659261260336263  0.0053750055747120
  0.4992154426772508  0.8328186635220081  0.2503556106119054
  0.5001893618870521  0.3338292205699440  0.2505616953633584
  0.4998526769796359  0.1676966682024510  0.9994299676143257
  0.4997170456733774  0.8307562615424251  0.7483756241736581
  0.6222172363609142  0.9144471582380027  0.4992807160614591
  0.6230958908188057  0.5844993985268563  0.7485773007504564
  0.6241636606878701  0.9164137024068540  0.9992676489470590
  0.6243424380553643  0.0826580662512770  0.2505116740392718
  0.6244689057844250  0.4174508416438598  0.9985051894513621
  0.6242208570424925  0.0829356421292586  0.7489738898011161
  0.6247419501454324  0.5825100161742098  0.2506796911048163
  0.6247526993384129  0.4172511947470133  0.5009547312400904
  0.7474464002803678  0.6663542325454495  0.4992887040458269
  0.7494684192153123  0.6667187935000536  0.9994520221048060
  0.7487911816883581  0.1658993810792654  0.4994033964214701
  0.7498259446797737  0.3330135446401936  0.7498604012378242
  0.7498215519373619  0.3328364397612687  0.2497537722646347
  0.7497186263710428  0.8330506833904714  0.2498849514648169
  0.7498045006398190  0.8330893028092742  0.7494257925839687
  0.7496357347588436  0.1666800814562995  0.9998834112163830
  0.8750063832713315  0.4168774083143515  0.4995837562675500
  0.8750080355307802  0.4170555704252917  0.0000084905252746
  0.8749975737372658  0.9162935816754886  0.4992812888525673
  0.8749988111952003  0.9169785002643920  0.9996228094194237
  0.8750004528086132  0.0828981552842199  0.2501448908440578
  0.8750030648088429  0.0830767350475633  0.7493626690861322
  0.8750028032085988  0.5832210855997615  0.2504940722203071
  0.8750075512624363  0.5832653096700229  0.7490572458785328
  0.0004077369866445  0.1659365746639697  0.1907510624285000
  0.0006477957713847  0.6660691993167294  0.1905853180948711
  0.0006632509349174  0.6662766377114614  0.6902248748193767
  0.0007558484535801  0.3334393387042057  0.4406395793593603
  0.0002279102903587  0.3335252595843416  0.9406706561359366
  0.0009336789008861  0.8334672854773022  0.4405210708669628
  0.0001828463205985  0.8335607719417897  0.9403716012218661
  0.0003305802078871  0.1663709362909025  0.6903244426175486
  0.1250015854891811  0.4164410518630453  0.1894389036415458
  0.1252602138692753  0.4169398817442438  0.6914332756796058
  0.1255398834663789  0.0833091115261159  0.9400766238867850
  0.1257873410820091  0.9159447732462743  0.6901798154201941
  0.1259158017489427  0.9158550937933958  0.1903636104285314
  0.1265891922277607  0.5846471704042721  0.9399912854572270
  0.1275587284498370  0.0829455845209560  0.4413535711309959
  0.1301364850827300  0.5843435795599051  0.4415120795988609
  0.2501594950796282  0.8309898620086859  0.9398093964765010
  0.2501780255098492  0.1676405421757169  0.1904532454290625
  0.2505113054047780  0.1678001763668126  0.6903396165701390
  0.2515800187241439  0.3346659246145234  0.9400285037965015
  0.2523351517080658  0.6650706081653959  0.6839081113349881
  0.2527492641227185  0.8275835002840101  0.4412141032136819
  0.2533651181559593  0.3389629820374421  0.4413573010362885
  0.2536990827872854  0.6638331375672950  0.1964783262639474
  0.3749903695682135  0.5832974794795703  0.9416939039612429
  0.3750038752330183  0.0835756467277625  0.4399655448409433
  0.3750047966832200  0.4198337872557892  0.6839255478460347
  0.3749931091082061  0.4215855581912349  0.1965238147118509
  0.3749860022286939  0.9166181472356588  0.1891158990091318
  0.3750083052394079  0.9164940457533040  0.6911944300173327
  0.3750022094799420  0.0832235911634735  0.9406348460563712
  0.4962999850908256  0.6638516553368893  0.1964587047411754
  0.4966449290462622  0.3389823805554888  0.4413391787294071
  0.4972549343883346  0.8275781342838584  0.4411995236000713
  0.4976746068692757  0.6650538150148081  0.6838972993943391
  0.4984152691024880  0.3346528478833093  0.9400248104201665
  0.4994932683957409  0.1677951029772001  0.6903329541796759
  0.4998135231179612  0.1676643331551829  0.1904372714566361
  0.4998256458581154  0.8309865277896824  0.9397993497799958
  0.6198702917224671  0.5843421422109100  0.4414840791188272
  0.6224367493909901  0.0829307885290618  0.4413250847830076
  0.6234075499437794  0.5846429429842223  0.9399840046052699
  0.6240670694170153  0.9158563110351425  0.1903464848252530
  0.6242114255674908  0.9159319158573241  0.6901635167103526
  0.6244625013317910  0.0833077865553807  0.9400771434400239
  0.6247511442048654  0.4169366891469591  0.6914351448406133
  0.6250011684448975  0.4164444318139241  0.1894221146285400
  0.7493500006742726  0.6662665520063045  0.6902095811723564
  0.7492435284467767  0.3334329450136101  0.4406495576213333
  0.7493435360524918  0.6660661311713629  0.1905808132771637
  0.7490675672773274  0.8334670257393866  0.4405020755826382
  0.7498032273896611  0.3335305831992268  0.9406678588429422
  0.7495804458323800  0.1659430877942479  0.1907552314995319
  0.7496534360176277  0.1663555827974346  0.6903137916622807
  0.7498231910780095  0.8335470096206109  0.9403789228059301
  0.8750016234330068  0.4164866324845494  0.1908421860819362
  0.8749965123946561  0.4162863588552653  0.6903459995390253
  0.8749940869523286  0.9161491235176795  0.1903888028075942
  0.8750002047109763  0.9163193677354924  0.6901942516591985
  0.8749945833314786  0.0836040751823810  0.4407927877781730
  0.8750045491537046  0.0837586510112902  0.9403058133011510
  0.8749969842125154  0.5843837631213689  0.4413812116561214
  0.8750087925854263  0.5837575543329732  0.9401956797736900
 
  0.00000000E+00  0.00000000E+00  0.00000000E+00
  0.00000000E+00  0.00000000E+00  0.00000000E+00
  0.00000000E+00  0.00000000E+00  0.00000000E+00
  0.00000000E+00  0.00000000E+00  0.00000000E+00
  0.00000000E+00  0.00000000E+00  0.00000000E+00
  0.00000000E+00  0.00000000E+00  0.00000000E+00
  0.00000000E+00  0.00000000E+00  0.00000000E+00
  0.00000000E+00  0.00000000E+00  0.00000000E+00
  0.00000000E+00  0.00000000E+00  0.00000000E+00
  0.00000000E+00  0.00000000E+00  0.00000000E+00
  0.00000000E+00  0.00000000E+00  0.00000000E+00
  0.00000000E+00  0.00000000E+00  0.00000000E+00
  0.00000000E+00  0.00000000E+00  0.00000000E+00
  0.00000000E+00  0.00000000E+00  0.00000000E+00
  0.00000000E+00  0.00000000E+00  0.00000000E+00
  0.00000000E+00  0.00000000E+00  0.00000000E+00
  0.00000000E+00  0.00000000E+00  0.00000000E+00
  0.00000000E+00  0.00000000E+00  0.00000000E+00
  0.00000000E+00  0.00000000E+00  0.00000000E+00
  0.00000000E+00  0.00000000E+00  0.00000000E+00
  0.00000000E+00  0.00000000E+00  0.00000000E+00
  0.00000000E+00  0.00000000E+00  0.00000000E+00
  0.00000000E+00  0.00000000E+00  0.00000000E+00
  0.00000000E+00  0.00000000E+00  0.00000000E+00
  0.00000000E+00  0.00000000E+00  0.00000000E+00
  0.00000000E+00  0.00000000E+00  0.00000000E+00
  0.00000000E+00  0.00000000E+00  0.00000000E+00
  0.00000000E+00  0.00000000E+00  0.00000000E+00
  0.00000000E+00  0.00000000E+00  0.00000000E+00
  0.00000000E+00  0.00000000E+00  0.00000000E+00
  0.00000000E+00  0.00000000E+00  0.00000000E+00
  0.00000000E+00  0.00000000E+00  0.00000000E+00
  0.00000000E+00  0.00000000E+00  0.00000000E+00
  0.00000000E+00  0.00000000E+00  0.00000000E+00
  0.00000000E+00  0.00000000E+00  0.00000000E+00
  0.00000000E+00  0.00000000E+00  0.00000000E+00
  0.00000000E+00  0.00000000E+00  0.00000000E+00
  0.00000000E+00  0.00000000E+00  0.00000000E+00
  0.00000000E+00  0.00000000E+00  0.00000000E+00
  0.00000000E+00  0.00000000E+00  0.00000000E+00
  0.00000000E+00  0.00000000E+00  0.00000000E+00
  0.00000000E+00  0.00000000E+00  0.00000000E+00
  0.00000000E+00  0.00000000E+00  0.00000000E+00
  0.00000000E+00  0.00000000E+00  0.00000000E+00
  0.00000000E+00  0.00000000E+00  0.00000000E+00
  0.00000000E+00  0.00000000E+00  0.00000000E+00
  0.00000000E+00  0.00000000E+00  0.00000000E+00
  0.00000000E+00  0.00000000E+00  0.00000000E+00
  0.00000000E+00  0.00000000E+00  0.00000000E+00
  0.00000000E+00  0.00000000E+00  0.00000000E+00
  0.00000000E+00  0.00000000E+00  0.00000000E+00
  0.00000000E+00  0.00000000E+00  0.00000000E+00
  0.00000000E+00  0.00000000E+00  0.00000000E+00
  0.00000000E+00  0.00000000E+00  0.00000000E+00
  0.00000000E+00  0.00000000E+00  0.00000000E+00
  0.00000000E+00  0.00000000E+00  0.00000000E+00
  0.00000000E+00  0.00000000E+00  0.00000000E+00
  0.00000000E+00  0.00000000E+00  0.00000000E+00
  0.00000000E+00  0.00000000E+00  0.00000000E+00
  0.00000000E+00  0.00000000E+00  0.00000000E+00
  0.00000000E+00  0.00000000E+00  0.00000000E+00
  0.00000000E+00  0.00000000E+00  0.00000000E+00
  0.00000000E+00  0.00000000E+00  0.00000000E+00
  0.00000000E+00  0.00000000E+00  0.00000000E+00
  0.00000000E+00  0.00000000E+00  0.00000000E+00
  0.00000000E+00  0.00000000E+00  0.00000000E+00
  0.00000000E+00  0.00000000E+00  0.00000000E+00
  0.00000000E+00  0.00000000E+00  0.00000000E+00
  0.00000000E+00  0.00000000E+00  0.00000000E+00
  0.00000000E+00  0.00000000E+00  0.00000000E+00
  0.00000000E+00  0.00000000E+00  0.00000000E+00
  0.00000000E+00  0.00000000E+00  0.00000000E+00
  0.00000000E+00  0.00000000E+00  0.00000000E+00
  0.00000000E+00  0.00000000E+00  0.00000000E+00
  0.00000000E+00  0.00000000E+00  0.00000000E+00
  0.00000000E+00  0.00000000E+00  0.00000000E+00
  0.00000000E+00  0.00000000E+00  0.00000000E+00
  0.00000000E+00  0.00000000E+00  0.00000000E+00
  0.00000000E+00  0.00000000E+00  0.00000000E+00
  0.00000000E+00  0.00000000E+00  0.00000000E+00
  0.00000000E+00  0.00000000E+00  0.00000000E+00
  0.00000000E+00  0.00000000E+00  0.00000000E+00
  0.00000000E+00  0.00000000E+00  0.00000000E+00
  0.00000000E+00  0.00000000E+00  0.00000000E+00
  0.00000000E+00  0.00000000E+00  0.00000000E+00
  0.00000000E+00  0.00000000E+00  0.00000000E+00
  0.00000000E+00  0.00000000E+00  0.00000000E+00
  0.00000000E+00  0.00000000E+00  0.00000000E+00
  0.00000000E+00  0.00000000E+00  0.00000000E+00
  0.00000000E+00  0.00000000E+00  0.00000000E+00
  0.00000000E+00  0.00000000E+00  0.00000000E+00
  0.00000000E+00  0.00000000E+00  0.00000000E+00
  0.00000000E+00  0.00000000E+00  0.00000000E+00
  0.00000000E+00  0.00000000E+00  0.00000000E+00
  0.00000000E+00  0.00000000E+00  0.00000000E+00
  0.00000000E+00  0.00000000E+00  0.00000000E+00
  0.00000000E+00  0.00000000E+00  0.00000000E+00
  0.00000000E+00  0.00000000E+00  0.00000000E+00
  0.00000000E+00  0.00000000E+00  0.00000000E+00
  0.00000000E+00  0.00000000E+00  0.00000000E+00
  0.00000000E+00  0.00000000E+00  0.00000000E+00
  0.00000000E+00  0.00000000E+00  0.00000000E+00
  0.00000000E+00  0.00000000E+00  0.00000000E+00
  0.00000000E+00  0.00000000E+00  0.00000000E+00
  0.00000000E+00  0.00000000E+00  0.00000000E+00
  0.00000000E+00  0.00000000E+00  0.00000000E+00
  0.00000000E+00  0.00000000E+00  0.00000000E+00
  0.00000000E+00  0.00000000E+00  0.00000000E+00
  0.00000000E+00  0.00000000E+00  0.00000000E+00
  0.00000000E+00  0.00000000E+00  0.00000000E+00
  0.00000000E+00  0.00000000E+00  0.00000000E+00
  0.00000000E+00  0.00000000E+00  0.00000000E+00
  0.00000000E+00  0.00000000E+00  0.00000000E+00
  0.00000000E+00  0.00000000E+00  0.00000000E+00
  0.00000000E+00  0.00000000E+00  0.00000000E+00
  0.00000000E+00  0.00000000E+00  0.00000000E+00
  0.00000000E+00  0.00000000E+00  0.00000000E+00
  0.00000000E+00  0.00000000E+00  0.00000000E+00
  0.00000000E+00  0.00000000E+00  0.00000000E+00
  0.00000000E+00  0.00000000E+00  0.00000000E+00
  0.00000000E+00  0.00000000E+00  0.00000000E+00
  0.00000000E+00  0.00000000E+00  0.00000000E+00
  0.00000000E+00  0.00000000E+00  0.00000000E+00
  0.00000000E+00  0.00000000E+00  0.00000000E+00
  0.00000000E+00  0.00000000E+00  0.00000000E+00
  0.00000000E+00  0.00000000E+00  0.00000000E+00
  0.00000000E+00  0.00000000E+00  0.00000000E+00
