This file is generated by VASPKIT code  
    1.000000000000000     
    12.9960000000000004    0.0000000000000000    0.0000000000000000
     0.0000000000000000   11.2548661479999996    0.0000000000000000
     0.0000000000000000    0.0000000000000000   10.4097960000000000
   Zn   O 
    64    63
Direct
  0.0011971785752478  0.1657504332360006  0.4994641096635001
  0.0003786944643742  0.1666352395104908  0.9998328574481748
  0.0025162345768745  0.6663666377637519  0.4994324612672443
  0.0004996211644276  0.6667509698404438  0.9993894352412338
  0.0001814716420663  0.3327197334725466  0.2495898863722771
  0.0001368435999751  0.3329723730630663  0.7499149730256284
  0.0002649805426096  0.8330898387314535  0.2497665304417932
  0.0001896903629280  0.8331533003928000  0.7494806225101232
  0.1251631714353909  0.4172060051140373  0.5011128388185760
  0.1252299342862911  0.5825161335649672  0.2507289860518666
  0.1258634867682322  0.0829711642429801  0.7490079228742134
  0.1255362120172408  0.4174512165887361  0.9984530170111960
  0.1256921322760170  0.0826539638131587  0.2504612665131989
  0.1258505536549573  0.9164563441995008  0.9991713144892036
  0.1269732793370747  0.5844602076285437  0.7487554239379721
  0.1278080347532796  0.9145105289776353  0.4993878164679311
  0.2502778020972006  0.8307397267650055  0.7485325207548693
  0.2501489791468655  0.1677301003506044  0.9993960046404265
  0.2497568404675357  0.3338197362221066  0.2505326445573602
  0.2507533589191982  0.8328316190075677  0.2503363032151503
  0.2512650457468307  0.6659526907538417  0.0057261036194500
  0.2517079175981543  0.1709197422015772  0.4996271139122206
  0.2517626641997193  0.3348840834698044  0.7487814983518578
  0.2636233301743270  0.6576326932484180  0.4931416897843707
  0.3750001929079621  0.5833705974466487  0.7536346815646809
  0.3750073741335381  0.4358864581331457  0.4931355200663690
  0.3750042027302800  0.9175642046752809  0.5007432267381475
  0.3749962506661421  0.5831105993038109  0.2751066452456660
  0.3750018868579754  0.4182948678816416  0.0057150142833269
  0.3749917945466247  0.0829768878966406  0.2490145813823696
  0.3750010945824229  0.0831524464360380  0.7500667137534883
  0.3750055044359741  0.9160084385758905  0.9979876304460782
  0.4863881336348174  0.6576319754545258  0.4930998844381886
  0.4982358454799214  0.3348813478825277  0.7487650376254988
  0.4982895898245745  0.1709201803745852  0.4996156368104150
  0.4987419283426116  0.6659291364973905  0.0056988806854442
  0.4992353481807917  0.8328341489612318  0.2503286693310222
  0.5002392196641973  0.3338207531436837  0.2505179818407550
  0.4998373709739576  0.1677211610149922  0.9993754404741377
  0.4997199828284232  0.8307055223046557  0.7484933694239383
  0.6221958222123121  0.9145327738566120  0.4993793365077533
  0.6230538633546041  0.5844671378222189  0.7487269259818681
  0.6241504040884404  0.9164541877485360  0.9991395395982657
  0.6242889652516499  0.0826480874787627  0.2504094637704244
  0.6244589758175181  0.4174507634797416  0.9984174722809944
  0.6241342760010040  0.0829576145626688  0.7489842563934527
  0.6247439551589249  0.5824999178591922  0.2506922212299978
  0.6248462724898776  0.4172058543681356  0.5011028388346591
  0.7474952074736059  0.6663545850064885  0.4993957050263174
  0.7495158696968491  0.6667382570863274  0.9993625103739976
  0.7487821980973612  0.1657682837786590  0.4994370921695637
  0.7498813501278921  0.3329530509537870  0.7498955779671274
  0.7498169988171058  0.3327158225655258  0.2495679061063276
  0.7497217685836172  0.8330786096168503  0.2497324133719949
  0.7497964004488611  0.8331357454873427  0.7494753499880515
  0.7496220184720054  0.1666352351907500  0.9998336875077275
  0.8750058515372885  0.4168259194597380  0.4995535778608046
  0.8750087669561034  0.4170706863074034 -0.0000183546279812
  0.8749910969509085  0.9162211457153455  0.4992318851399579
  0.8750035862241423  0.9169845979483873  0.9995363970459652
  0.8750014952589948  0.0829064565496717  0.2499349947974951
  0.8750028771078258  0.0830746918829153  0.7494013905872263
  0.8749936226908813  0.5832022729923737  0.2503306212901695
  0.8750032097251820  0.5832542957005109  0.7490852268775889
  0.0005083389442136  0.1658402812256243  0.1907460682280103
  0.0007148164896406  0.6660472167564788  0.1905948687285013
  0.0007598088849852  0.6662295682083110  0.6901228250291442
  0.0008387695463223  0.3334038080523278  0.4405512964325903
  0.0002493910268081  0.3335635210508511  0.9406816673789189
  0.0010567448985860  0.8334351105188298  0.4404186710072312
  0.0002384417828250  0.8335842568912749  0.9403322494268775
  0.0004344173552100  0.1662976575340110  0.6901820735505289
  0.1250500049218249  0.4165178525099523  0.1895221301066431
  0.1253329683635174  0.4169467091083225  0.6913994632933285
  0.1256492157291884  0.0833060263246560  0.9400282777576655
  0.1258864500670278  0.9159091526595388  0.6900474745345149
  0.1260357473308819  0.9158054123671863  0.1903301845691523
  0.1267258716228956  0.5847689931215022  0.9400675619380585
  0.1277436321431474  0.0829158302546426  0.4413009988568971
  0.1302761407294932  0.5843586363546884  0.4415294055677277
  0.2502022174878952  0.8308131487247786  0.9398274676952862
  0.2502270781068486  0.1677553695176839  0.1904689970844670
  0.2506224965499413  0.1679260589821602  0.6901932528758392
  0.2517064850204020  0.3347168580103203  0.9400957108650649
  0.2524798174402886  0.6650380832031828  0.6837097133016361
  0.2528623569424117  0.8274674642900165  0.4412062355959118
  0.2535082678831728  0.3391841765385334  0.4413546471338635
  0.2539153937039749  0.6636962900327129  0.1969100358317079
  0.3749954885267952  0.5833163521408232  0.9418185776465363
  0.3749962416800143  0.0836176702625809  0.4398322400866406
  0.3749965442326221  0.4199933307452509  0.6836911642893406
  0.3749918879726324  0.4218281939834367  0.1968866114553206
  0.3749949713687685  0.9165421179553088  0.1891069322280999
  0.3750031737946639  0.9164465300079194  0.6911566296998910
  0.3749877612978307  0.0831593446515222  0.9406833648216339
  0.4960642996100125  0.6637022093957308  0.1968802610954776
  0.4965093278372857  0.3391708165361489  0.4413424416251079
  0.4971549690805122  0.8274784485971104  0.4412052563708596
  0.4975287735258750  0.6650044361008119  0.6836804389086065
  0.4982845733875229  0.3347164619085983  0.9400820501543152
  0.4993732574322267  0.1679378586500419  0.6901856842865154
  0.4997544073243413  0.1677743878895023  0.1904588521950509
  0.4997962779156330  0.8308097303196189  0.9397962571402092
  0.6197337313337011  0.5843463880671312  0.4415027692617138
  0.6222523140867622  0.0829204537738913  0.4412566824041692
  0.6232839992504533  0.5847675797210690  0.9400249108349592
  0.6239518590631949  0.9157977817491679  0.1903019690450518
  0.6241133128683585  0.9159152165610031  0.6900379941044861
  0.6243523170080642  0.0833099140714899  0.9400143945197313
  0.6246777374810973  0.4169426831091047  0.6913933598753315
  0.6249496857717187  0.4165166795875025  0.1894912888560623
  0.7492616994995117  0.6662383536782451  0.6901037908966317
  0.7491730439572698  0.3334112969508479  0.4405225965467830
  0.7492702100338685  0.6660309294461626  0.1905745265256256
  0.7489376779724283  0.8334308667659212  0.4404058310567470
  0.7497487188910112  0.3335580662216335  0.9406676207847126
  0.7495007049923543  0.1658284156126047  0.1907592273815715
  0.7495585447604475  0.1662871437056700  0.6901563859043217
  0.7497584010662313  0.8335811959897877  0.9403248330532608
  0.8750046065227205  0.4164641513744914  0.1908114069434626
  0.8750014982768248  0.4163096229119342  0.6901785281464040
  0.8749846730760455  0.9160825392673896  0.1903779983591040
  0.8750029505201942  0.9162453845904371  0.6899522654012942
  0.8749952626855135  0.0835666620812857  0.4405993684996160
  0.8749977893876660  0.0837711099350651  0.9402533668982281
  0.8750098484734632  0.5844489812017711  0.4412779569440654
  0.8750082616787933  0.5837484140044880  0.9401260423368313
 
  0.00000000E+00  0.00000000E+00  0.00000000E+00
  0.00000000E+00  0.00000000E+00  0.00000000E+00
  0.00000000E+00  0.00000000E+00  0.00000000E+00
  0.00000000E+00  0.00000000E+00  0.00000000E+00
  0.00000000E+00  0.00000000E+00  0.00000000E+00
  0.00000000E+00  0.00000000E+00  0.00000000E+00
  0.00000000E+00  0.00000000E+00  0.00000000E+00
  0.00000000E+00  0.00000000E+00  0.00000000E+00
  0.00000000E+00  0.00000000E+00  0.00000000E+00
  0.00000000E+00  0.00000000E+00  0.00000000E+00
  0.00000000E+00  0.00000000E+00  0.00000000E+00
  0.00000000E+00  0.00000000E+00  0.00000000E+00
  0.00000000E+00  0.00000000E+00  0.00000000E+00
  0.00000000E+00  0.00000000E+00  0.00000000E+00
  0.00000000E+00  0.00000000E+00  0.00000000E+00
  0.00000000E+00  0.00000000E+00  0.00000000E+00
  0.00000000E+00  0.00000000E+00  0.00000000E+00
  0.00000000E+00  0.00000000E+00  0.00000000E+00
  0.00000000E+00  0.00000000E+00  0.00000000E+00
  0.00000000E+00  0.00000000E+00  0.00000000E+00
  0.00000000E+00  0.00000000E+00  0.00000000E+00
  0.00000000E+00  0.00000000E+00  0.00000000E+00
  0.00000000E+00  0.00000000E+00  0.00000000E+00
  0.00000000E+00  0.00000000E+00  0.00000000E+00
  0.00000000E+00  0.00000000E+00  0.00000000E+00
  0.00000000E+00  0.00000000E+00  0.00000000E+00
  0.00000000E+00  0.00000000E+00  0.00000000E+00
  0.00000000E+00  0.00000000E+00  0.00000000E+00
  0.00000000E+00  0.00000000E+00  0.00000000E+00
  0.00000000E+00  0.00000000E+00  0.00000000E+00
  0.00000000E+00  0.00000000E+00  0.00000000E+00
  0.00000000E+00  0.00000000E+00  0.00000000E+00
  0.00000000E+00  0.00000000E+00  0.00000000E+00
  0.00000000E+00  0.00000000E+00  0.00000000E+00
  0.00000000E+00  0.00000000E+00  0.00000000E+00
  0.00000000E+00  0.00000000E+00  0.00000000E+00
  0.00000000E+00  0.00000000E+00  0.00000000E+00
  0.00000000E+00  0.00000000E+00  0.00000000E+00
  0.00000000E+00  0.00000000E+00  0.00000000E+00
  0.00000000E+00  0.00000000E+00  0.00000000E+00
  0.00000000E+00  0.00000000E+00  0.00000000E+00
  0.00000000E+00  0.00000000E+00  0.00000000E+00
  0.00000000E+00  0.00000000E+00  0.00000000E+00
  0.00000000E+00  0.00000000E+00  0.00000000E+00
  0.00000000E+00  0.00000000E+00  0.00000000E+00
  0.00000000E+00  0.00000000E+00  0.00000000E+00
  0.00000000E+00  0.00000000E+00  0.00000000E+00
  0.00000000E+00  0.00000000E+00  0.00000000E+00
  0.00000000E+00  0.00000000E+00  0.00000000E+00
  0.00000000E+00  0.00000000E+00  0.00000000E+00
  0.00000000E+00  0.00000000E+00  0.00000000E+00
  0.00000000E+00  0.00000000E+00  0.00000000E+00
  0.00000000E+00  0.00000000E+00  0.00000000E+00
  0.00000000E+00  0.00000000E+00  0.00000000E+00
  0.00000000E+00  0.00000000E+00  0.00000000E+00
  0.00000000E+00  0.00000000E+00  0.00000000E+00
  0.00000000E+00  0.00000000E+00  0.00000000E+00
  0.00000000E+00  0.00000000E+00  0.00000000E+00
  0.00000000E+00  0.00000000E+00  0.00000000E+00
  0.00000000E+00  0.00000000E+00  0.00000000E+00
  0.00000000E+00  0.00000000E+00  0.00000000E+00
  0.00000000E+00  0.00000000E+00  0.00000000E+00
  0.00000000E+00  0.00000000E+00  0.00000000E+00
  0.00000000E+00  0.00000000E+00  0.00000000E+00
  0.00000000E+00  0.00000000E+00  0.00000000E+00
  0.00000000E+00  0.00000000E+00  0.00000000E+00
  0.00000000E+00  0.00000000E+00  0.00000000E+00
  0.00000000E+00  0.00000000E+00  0.00000000E+00
  0.00000000E+00  0.00000000E+00  0.00000000E+00
  0.00000000E+00  0.00000000E+00  0.00000000E+00
  0.00000000E+00  0.00000000E+00  0.00000000E+00
  0.00000000E+00  0.00000000E+00  0.00000000E+00
  0.00000000E+00  0.00000000E+00  0.00000000E+00
  0.00000000E+00  0.00000000E+00  0.00000000E+00
  0.00000000E+00  0.00000000E+00  0.00000000E+00
  0.00000000E+00  0.00000000E+00  0.00000000E+00
  0.00000000E+00  0.00000000E+00  0.00000000E+00
  0.00000000E+00  0.00000000E+00  0.00000000E+00
  0.00000000E+00  0.00000000E+00  0.00000000E+00
  0.00000000E+00  0.00000000E+00  0.00000000E+00
  0.00000000E+00  0.00000000E+00  0.00000000E+00
  0.00000000E+00  0.00000000E+00  0.00000000E+00
  0.00000000E+00  0.00000000E+00  0.00000000E+00
  0.00000000E+00  0.00000000E+00  0.00000000E+00
  0.00000000E+00  0.00000000E+00  0.00000000E+00
  0.00000000E+00  0.00000000E+00  0.00000000E+00
  0.00000000E+00  0.00000000E+00  0.00000000E+00
  0.00000000E+00  0.00000000E+00  0.00000000E+00
  0.00000000E+00  0.00000000E+00  0.00000000E+00
  0.00000000E+00  0.00000000E+00  0.00000000E+00
  0.00000000E+00  0.00000000E+00  0.00000000E+00
  0.00000000E+00  0.00000000E+00  0.00000000E+00
  0.00000000E+00  0.00000000E+00  0.00000000E+00
  0.00000000E+00  0.00000000E+00  0.00000000E+00
  0.00000000E+00  0.00000000E+00  0.00000000E+00
  0.00000000E+00  0.00000000E+00  0.00000000E+00
  0.00000000E+00  0.00000000E+00  0.00000000E+00
  0.00000000E+00  0.00000000E+00  0.00000000E+00
  0.00000000E+00  0.00000000E+00  0.00000000E+00
  0.00000000E+00  0.00000000E+00  0.00000000E+00
  0.00000000E+00  0.00000000E+00  0.00000000E+00
  0.00000000E+00  0.00000000E+00  0.00000000E+00
  0.00000000E+00  0.00000000E+00  0.00000000E+00
  0.00000000E+00  0.00000000E+00  0.00000000E+00
  0.00000000E+00  0.00000000E+00  0.00000000E+00
  0.00000000E+00  0.00000000E+00  0.00000000E+00
  0.00000000E+00  0.00000000E+00  0.00000000E+00
  0.00000000E+00  0.00000000E+00  0.00000000E+00
  0.00000000E+00  0.00000000E+00  0.00000000E+00
  0.00000000E+00  0.00000000E+00  0.00000000E+00
  0.00000000E+00  0.00000000E+00  0.00000000E+00
  0.00000000E+00  0.00000000E+00  0.00000000E+00
  0.00000000E+00  0.00000000E+00  0.00000000E+00
  0.00000000E+00  0.00000000E+00  0.00000000E+00
  0.00000000E+00  0.00000000E+00  0.00000000E+00
  0.00000000E+00  0.00000000E+00  0.00000000E+00
  0.00000000E+00  0.00000000E+00  0.00000000E+00
  0.00000000E+00  0.00000000E+00  0.00000000E+00
  0.00000000E+00  0.00000000E+00  0.00000000E+00
  0.00000000E+00  0.00000000E+00  0.00000000E+00
  0.00000000E+00  0.00000000E+00  0.00000000E+00
  0.00000000E+00  0.00000000E+00  0.00000000E+00
  0.00000000E+00  0.00000000E+00  0.00000000E+00
  0.00000000E+00  0.00000000E+00  0.00000000E+00
  0.00000000E+00  0.00000000E+00  0.00000000E+00
  0.00000000E+00  0.00000000E+00  0.00000000E+00
  0.00000000E+00  0.00000000E+00  0.00000000E+00
