This file is generated by VASPKIT code  
    1.000000000000000     
    12.9960000000000004    0.0000000000000000    0.0000000000000000
     0.0000000000000000   11.2548661479999996    0.0000000000000000
     0.0000000000000000    0.0000000000000000   10.4097960000000000
   Zn   O 
    64    63
Direct
  0.0012363343380866  0.1659329883514590  0.4993673940812994
  0.0003755666481715  0.1666578228794326 -0.0000827760350641
  0.0025310883956319  0.6663686076442653  0.4992702767957580
  0.0005388472928312  0.6667018596447418  0.9994853132397896
  0.0002054545288169  0.3328855456978042  0.2497961255892382
  0.0002081406043672  0.3330746422878464  0.7498179003476915
  0.0003322390008386  0.8329791811676155  0.2499254779992636
  0.0002230172156226  0.8330920679674967  0.7493922989302118
  0.1252729692072448  0.4172791324134046  0.5008762424432929
  0.1253021828884594  0.5825427473573420  0.2507172672461720
  0.1257926378296769  0.0829287418620656  0.7489011609741636
  0.1255674815314843  0.4174776937956480  0.9984862906013536
  0.1256762961041646  0.0826825394664858  0.2505943046539794
  0.1258326201672727  0.9164051687226837  0.9992879977906916
  0.1268702295798408  0.5845257667824513  0.7485066833160520
  0.1277787589824447  0.9144600453332735  0.4992638311428135
  0.2503147793339234  0.8307857004397546  0.7483165213290544
  0.2501549493028249  0.1677049943420985  0.9994330657501392
  0.2498221036445695  0.3338446368864179  0.2505741900528777
  0.2508039572052245  0.8328247247107777  0.2503992672958826
  0.2511814709899959  0.6659457849748976  0.0052772380532269
  0.2516964654656397  0.1707521720648980  0.4995055701157217
  0.2517533202189835  0.3349015538790158  0.7485495413812046
  0.2633320133453199  0.6577945622240708  0.4932692902535087
  0.3750089492976153  0.5833545241508866  0.7532432247351403
  0.3749940227479901  0.4352165500030544  0.4932476349133695
  0.3750010036901353  0.9173786230177690  0.5005322480155586
  0.3750069400802719  0.5831877345813065  0.2735263988452205
  0.3749995861063700  0.4181833116212798  0.0052672535747022
  0.3750071032863792  0.0830534852293848  0.2492276350529902
  0.3749978688423804  0.0831421252713254  0.7498194991019881
  0.3750072020839884  0.9160495784687327  0.9980822756160345
  0.4866518448532373  0.6577851931589856  0.4932332665924440
  0.4982403015387094  0.3348817401583379  0.7485168211773451
  0.4983046718001413  0.1707396946371008  0.4994785614620654
  0.4988031604436149  0.6659382833143594  0.0052556433493317
  0.4991869395764955  0.8328233173762746  0.2503887375180623
  0.5001687813581518  0.3338628683753473  0.2505514438652993
  0.4998445825873598  0.1677034612310875  0.9994065341050298
  0.4997046886393784  0.8307640899449563  0.7482883699131491
  0.6222245889647992  0.9144869519932819  0.4992551943525229
  0.6231376822770575  0.5845022040240327  0.7484778503627093
  0.6241709573808489  0.9163955767444463  0.9992581181088128
  0.6243369449207025  0.0826615863914846  0.2505532295784080
  0.6244272646066871  0.4174648717723989  0.9984431829109449
  0.6241984719333220  0.0829260620504634  0.7488970196402892
  0.6246916270894600  0.5825152600620458  0.2506904869343408
  0.6247166001439897  0.4172835947755269  0.5008424731712892
  0.7474810485319417  0.6663334761619324  0.4992522097258472
  0.7494625831236159  0.6666933861271365  0.9994882775209236
  0.7487627287207389  0.1659251739782666  0.4993686575258793
  0.7497865925346396  0.3330596075495159  0.7497957904013660
  0.7497892887527635  0.3328933806254068  0.2497845009543455
  0.7496587244117879  0.8329663532324474  0.2499155455036917
  0.7497870311511472  0.8330776601211842  0.7493762751266535
  0.7496297017988357  0.1666736253736208  0.9999052924477945
  0.8749945843784228  0.4168624819541077  0.4995624394340755
  0.8750046215609529  0.4170911206525549  0.0000284816360568
  0.8749960421728136  0.9162018815180877  0.4992368999032302
  0.8749948329461630  0.9169631654860859  0.9996849785690882
  0.8750009502014906  0.0828308390436306  0.2502317166281861
  0.8749974544480842  0.0830505132458032  0.7493077016568267
  0.8750015283468351  0.5832385164906586  0.2506151104876042
  0.8750028896439416  0.5832878271978468  0.7490098029484553
  0.0003499930334842  0.1659618712287821  0.1907653722599901
  0.0006005633115444  0.6660696536371878  0.1905822575609193
  0.0005847513144370  0.6663280558228392  0.6903339002157199
  0.0007087270707528  0.3334129103913254  0.4406950020294683
  0.0001867202088179  0.3334960628506306  0.9407328279914176
  0.0008550195483351  0.8334776537493299  0.4405526658000770
  0.0001323992097084  0.8335646411417273  0.9404118666539157
  0.0002973390380449  0.1663940646103350  0.6904184320674587
  0.1249569320871684  0.4164428800984666  0.1894444892296292
  0.1252060316263320  0.4169329708661429  0.6914954659516085
  0.1254790465464766  0.0833277106020604  0.9401063482067264
  0.1257356330562277  0.9159604467929351  0.6902864593586241
  0.1258659799586468  0.9159152011916392  0.1903565560263531
  0.1265075088014364  0.5846058813777943  0.9399933081378133
  0.1274590058540922  0.0829309302929698  0.4413946880788726
  0.1299305092659124  0.5842970972300466  0.4415016247776513
  0.2501498884303210  0.8310974890653953  0.9398345338361501
  0.2501551513942131  0.1676026275856888  0.1904433941554090
  0.2504625274086846  0.1677469153033282  0.6904255847464681
  0.2515252448231831  0.3346051178917168  0.9400518283870972
  0.2522720829781513  0.6651109347151875  0.6842150684755559
  0.2526709655784397  0.8277927570218365  0.4411838271747325
  0.2532232946998637  0.3387805535614341  0.4413318217562415
  0.2535588799137322  0.6639613566556375  0.1963111820684988
  0.3749908922675849  0.5833097266884884  0.9417608381022493
  0.3749949318278689  0.0835546620081069  0.4399474947262673
  0.3749986318691632  0.4197648249819576  0.6842619201813944
  0.3750008672721325  0.4213839186265726  0.1963730992749541
  0.3749954942716515  0.9166702457848749  0.1890759404564474
  0.3750118778011772  0.9165265141345340  0.6912197830323650
  0.3749931140471577  0.0832434356380730  0.9406148291523253
  0.4964355897955915  0.6639633859998850  0.1962876544291114
  0.4967671142274434  0.3387825789106103  0.4413087622065133
  0.4973359969785632  0.8277931217842126  0.4411709919426911
  0.4977416399510970  0.6651029200725134  0.6841944069323507
  0.4984666889017977  0.3345968956293575  0.9400270022023740
  0.4995290376975530  0.1677322640383003  0.6904052175247153
  0.4998510135561097  0.1675873658553859  0.1904161769170865
  0.4998439345128849  0.8310909148467920  0.9398057903459582
  0.6200563131618311  0.5842920002296202  0.4414621439867522
  0.6225494003832439  0.0829408993299321  0.4413646240611376
  0.6234889485615879  0.5846091679870320  0.9399662562060874
  0.6241324582193785  0.9158930594427763  0.1903313658340805
  0.6242779371856715  0.9159651658135385  0.6902765359185096
  0.6245229018720913  0.0833264314523742  0.9400977046670288
  0.6247913007727862  0.4169156360482788  0.6914711867948516
  0.6250413800964867  0.4164412238085927  0.1894068296385749
  0.7494145660934068  0.6663149282308625  0.6903194468502315
  0.7492905288706010  0.3334299011821185  0.4406861103558319
  0.7493985614190600  0.6660614143651885  0.1905795307758382
  0.7491377496621138  0.8334832623125977  0.4405496405620721
  0.7498359523505366  0.3335041500254329  0.9407202047759489
  0.7496646047132498  0.1659649019231066  0.1907624282472006
  0.7496973029891747  0.1663827897824531  0.6904091694933547
  0.7498717386554041  0.8335559029028253  0.9403954464957940
  0.8749995439967849  0.4164979012665512  0.1908374458552061
  0.8749984868680615  0.4162759958503136  0.6904575739552976
  0.8749944316221810  0.9161509840965807  0.1904630390190818
  0.8750018101963816  0.9163565014829402  0.6902682537917345
  0.8750010567057258  0.0835467270922555  0.4409034518912236
  0.8750009474309847  0.0837260515589811  0.9403384799501968
  0.8749900209883111  0.5843746072402738  0.4414584608524149
  0.8749994330103841  0.5837378632029278  0.9402324454654045
 
  0.00000000E+00  0.00000000E+00  0.00000000E+00
  0.00000000E+00  0.00000000E+00  0.00000000E+00
  0.00000000E+00  0.00000000E+00  0.00000000E+00
  0.00000000E+00  0.00000000E+00  0.00000000E+00
  0.00000000E+00  0.00000000E+00  0.00000000E+00
  0.00000000E+00  0.00000000E+00  0.00000000E+00
  0.00000000E+00  0.00000000E+00  0.00000000E+00
  0.00000000E+00  0.00000000E+00  0.00000000E+00
  0.00000000E+00  0.00000000E+00  0.00000000E+00
  0.00000000E+00  0.00000000E+00  0.00000000E+00
  0.00000000E+00  0.00000000E+00  0.00000000E+00
  0.00000000E+00  0.00000000E+00  0.00000000E+00
  0.00000000E+00  0.00000000E+00  0.00000000E+00
  0.00000000E+00  0.00000000E+00  0.00000000E+00
  0.00000000E+00  0.00000000E+00  0.00000000E+00
  0.00000000E+00  0.00000000E+00  0.00000000E+00
  0.00000000E+00  0.00000000E+00  0.00000000E+00
  0.00000000E+00  0.00000000E+00  0.00000000E+00
  0.00000000E+00  0.00000000E+00  0.00000000E+00
  0.00000000E+00  0.00000000E+00  0.00000000E+00
  0.00000000E+00  0.00000000E+00  0.00000000E+00
  0.00000000E+00  0.00000000E+00  0.00000000E+00
  0.00000000E+00  0.00000000E+00  0.00000000E+00
  0.00000000E+00  0.00000000E+00  0.00000000E+00
  0.00000000E+00  0.00000000E+00  0.00000000E+00
  0.00000000E+00  0.00000000E+00  0.00000000E+00
  0.00000000E+00  0.00000000E+00  0.00000000E+00
  0.00000000E+00  0.00000000E+00  0.00000000E+00
  0.00000000E+00  0.00000000E+00  0.00000000E+00
  0.00000000E+00  0.00000000E+00  0.00000000E+00
  0.00000000E+00  0.00000000E+00  0.00000000E+00
  0.00000000E+00  0.00000000E+00  0.00000000E+00
  0.00000000E+00  0.00000000E+00  0.00000000E+00
  0.00000000E+00  0.00000000E+00  0.00000000E+00
  0.00000000E+00  0.00000000E+00  0.00000000E+00
  0.00000000E+00  0.00000000E+00  0.00000000E+00
  0.00000000E+00  0.00000000E+00  0.00000000E+00
  0.00000000E+00  0.00000000E+00  0.00000000E+00
  0.00000000E+00  0.00000000E+00  0.00000000E+00
  0.00000000E+00  0.00000000E+00  0.00000000E+00
  0.00000000E+00  0.00000000E+00  0.00000000E+00
  0.00000000E+00  0.00000000E+00  0.00000000E+00
  0.00000000E+00  0.00000000E+00  0.00000000E+00
  0.00000000E+00  0.00000000E+00  0.00000000E+00
  0.00000000E+00  0.00000000E+00  0.00000000E+00
  0.00000000E+00  0.00000000E+00  0.00000000E+00
  0.00000000E+00  0.00000000E+00  0.00000000E+00
  0.00000000E+00  0.00000000E+00  0.00000000E+00
  0.00000000E+00  0.00000000E+00  0.00000000E+00
  0.00000000E+00  0.00000000E+00  0.00000000E+00
  0.00000000E+00  0.00000000E+00  0.00000000E+00
  0.00000000E+00  0.00000000E+00  0.00000000E+00
  0.00000000E+00  0.00000000E+00  0.00000000E+00
  0.00000000E+00  0.00000000E+00  0.00000000E+00
  0.00000000E+00  0.00000000E+00  0.00000000E+00
  0.00000000E+00  0.00000000E+00  0.00000000E+00
  0.00000000E+00  0.00000000E+00  0.00000000E+00
  0.00000000E+00  0.00000000E+00  0.00000000E+00
  0.00000000E+00  0.00000000E+00  0.00000000E+00
  0.00000000E+00  0.00000000E+00  0.00000000E+00
  0.00000000E+00  0.00000000E+00  0.00000000E+00
  0.00000000E+00  0.00000000E+00  0.00000000E+00
  0.00000000E+00  0.00000000E+00  0.00000000E+00
  0.00000000E+00  0.00000000E+00  0.00000000E+00
  0.00000000E+00  0.00000000E+00  0.00000000E+00
  0.00000000E+00  0.00000000E+00  0.00000000E+00
  0.00000000E+00  0.00000000E+00  0.00000000E+00
  0.00000000E+00  0.00000000E+00  0.00000000E+00
  0.00000000E+00  0.00000000E+00  0.00000000E+00
  0.00000000E+00  0.00000000E+00  0.00000000E+00
  0.00000000E+00  0.00000000E+00  0.00000000E+00
  0.00000000E+00  0.00000000E+00  0.00000000E+00
  0.00000000E+00  0.00000000E+00  0.00000000E+00
  0.00000000E+00  0.00000000E+00  0.00000000E+00
  0.00000000E+00  0.00000000E+00  0.00000000E+00
  0.00000000E+00  0.00000000E+00  0.00000000E+00
  0.00000000E+00  0.00000000E+00  0.00000000E+00
  0.00000000E+00  0.00000000E+00  0.00000000E+00
  0.00000000E+00  0.00000000E+00  0.00000000E+00
  0.00000000E+00  0.00000000E+00  0.00000000E+00
  0.00000000E+00  0.00000000E+00  0.00000000E+00
  0.00000000E+00  0.00000000E+00  0.00000000E+00
  0.00000000E+00  0.00000000E+00  0.00000000E+00
  0.00000000E+00  0.00000000E+00  0.00000000E+00
  0.00000000E+00  0.00000000E+00  0.00000000E+00
  0.00000000E+00  0.00000000E+00  0.00000000E+00
  0.00000000E+00  0.00000000E+00  0.00000000E+00
  0.00000000E+00  0.00000000E+00  0.00000000E+00
  0.00000000E+00  0.00000000E+00  0.00000000E+00
  0.00000000E+00  0.00000000E+00  0.00000000E+00
  0.00000000E+00  0.00000000E+00  0.00000000E+00
  0.00000000E+00  0.00000000E+00  0.00000000E+00
  0.00000000E+00  0.00000000E+00  0.00000000E+00
  0.00000000E+00  0.00000000E+00  0.00000000E+00
  0.00000000E+00  0.00000000E+00  0.00000000E+00
  0.00000000E+00  0.00000000E+00  0.00000000E+00
  0.00000000E+00  0.00000000E+00  0.00000000E+00
  0.00000000E+00  0.00000000E+00  0.00000000E+00
  0.00000000E+00  0.00000000E+00  0.00000000E+00
  0.00000000E+00  0.00000000E+00  0.00000000E+00
  0.00000000E+00  0.00000000E+00  0.00000000E+00
  0.00000000E+00  0.00000000E+00  0.00000000E+00
  0.00000000E+00  0.00000000E+00  0.00000000E+00
  0.00000000E+00  0.00000000E+00  0.00000000E+00
  0.00000000E+00  0.00000000E+00  0.00000000E+00
  0.00000000E+00  0.00000000E+00  0.00000000E+00
  0.00000000E+00  0.00000000E+00  0.00000000E+00
  0.00000000E+00  0.00000000E+00  0.00000000E+00
  0.00000000E+00  0.00000000E+00  0.00000000E+00
  0.00000000E+00  0.00000000E+00  0.00000000E+00
  0.00000000E+00  0.00000000E+00  0.00000000E+00
  0.00000000E+00  0.00000000E+00  0.00000000E+00
  0.00000000E+00  0.00000000E+00  0.00000000E+00
  0.00000000E+00  0.00000000E+00  0.00000000E+00
  0.00000000E+00  0.00000000E+00  0.00000000E+00
  0.00000000E+00  0.00000000E+00  0.00000000E+00
  0.00000000E+00  0.00000000E+00  0.00000000E+00
  0.00000000E+00  0.00000000E+00  0.00000000E+00
  0.00000000E+00  0.00000000E+00  0.00000000E+00
  0.00000000E+00  0.00000000E+00  0.00000000E+00
  0.00000000E+00  0.00000000E+00  0.00000000E+00
  0.00000000E+00  0.00000000E+00  0.00000000E+00
  0.00000000E+00  0.00000000E+00  0.00000000E+00
  0.00000000E+00  0.00000000E+00  0.00000000E+00
  0.00000000E+00  0.00000000E+00  0.00000000E+00
  0.00000000E+00  0.00000000E+00  0.00000000E+00
  0.00000000E+00  0.00000000E+00  0.00000000E+00
