This file is generated by VASPKIT code  
    1.000000000000000     
     9.7470006943000005    0.0000000000000000    0.0000000000000000
     0.0000000000000000   11.2548665999999997    0.0000000000000000
     0.0000000000000000    0.0000000000000000   10.4097957610999998
   Zn   O 
    48    47
Direct
  0.1666659510279385  0.0831879801009164  0.2684290250744436
  0.1666696281945385  0.0831772479772270  0.7518750106919455
  0.1666604295995938  0.5830373093681255  0.2493575948372974
  0.1666702217942516  0.5830603686510161  0.7500934808616770
  0.5000839808334505  0.0826059318678995  0.2503731467800515
  0.4986521623685711  0.0840300673249711  0.7486642017650591
  0.4993890799632327  0.5826639708828246  0.2503485882289812
  0.4994564662496517  0.5828519168067643  0.7492984752937720
  0.8332424948677875  0.0826060761371140  0.2503726811784936
  0.8346858716538313  0.0840240229292193  0.7486695764572114
  0.8339495806580256  0.5826631786114542  0.2503584002339089
  0.8338837536404936  0.5828490977258741  0.7493070108411526
  0.0008084274677217  0.3326217748348388  0.2502322372813863
  0.0001803875122556  0.3314278029775917  0.7488331601318230
  0.9998347311073736  0.8338020006121486  0.2505309931840878
  0.0016263491748395  0.8342650992752451  0.7488491311698700
  0.3325221914352395  0.3326218557740878  0.2502316767042526
  0.3331582398830397  0.3314356683347485  0.7488244914584251
  0.3334975761595640  0.8338026313491202  0.2505280352813804
  0.3317085329083647  0.8342641816220302  0.7488404994313030
  0.6666668392624180  0.3331061505830085  0.2496493272916621
  0.6666665180049426  0.3333107795060686  0.7497266229789675
  0.6666660210066915  0.8325494229743875  0.2495608654928871
  0.6666651875562165  0.8327088865422175  0.7501744003210092
  0.0123599450112488  0.1597936937141376  0.4944824734690353
  0.0010865041931092  0.1661904926468450  0.0034046782472909
  0.0013611830496165  0.6693079825559337  0.4998509989292075
  0.0000842897220566  0.6675943336422430  0.9996309050354730
  0.3209522544857067  0.1597909101127039  0.4944780233383942
  0.3322509365768131  0.1661916170575870  0.0034016316089409
  0.3319731126031946  0.6693091871087553  0.4998455734896050
  0.3332593308541970  0.6675959766819058  0.9996251379540075
  0.6666615538133857  0.1669431170615990  0.4995675960518318
  0.6666678895198032  0.1670355155134814  0.9991843172463949
  0.6666663744354584  0.6658118349743692  0.4995992399941293
  0.6666705747438703  0.6665413697411470  0.0000497253358169
  0.1666694238420240  0.4169915403512524  0.5006157357846479
  0.1666663162488372  0.4164635264168035  0.9986393822851853
  0.1666630504109899  0.9311040252225184  0.4944402979816596
  0.1666640472112247  0.9181199021752313  0.0036199895151541
  0.4979285469403292  0.4151324497281134  0.4994051320019478
  0.4993001822764944  0.4167809565009559  0.9994972108271495
  0.5000722302906906  0.9171306675391836  0.5008733269591275
  0.4996855942967535  0.9172873089883578  0.9990014697295012
  0.8354078399186440  0.4151303538459852  0.4994197661370526
  0.8340334192478318  0.4167835456797469  0.9994998196250094
  0.8332557909582488  0.9171307006948032  0.5008729925226424
  0.8336464527704291  0.9172890647263202  0.9990063258910294
  0.1666685196166653  0.0834791599460511  0.9407602825062681
  0.1666670165613207  0.5833625305900005  0.4401446020001708
  0.1666701088416826  0.5834297436842603  0.9406931709421745
  0.4967531751196732  0.0843027372771491  0.4412992759897901
  0.4988962833421731  0.0843594550707655  0.9400328516945319
  0.4981999698086304  0.5831930702679442  0.4410662540780256
  0.4995817093764087  0.5835099012261366  0.9402309358145110
  0.8365614691610582  0.0843002241279311  0.4413001042421295
  0.8344386819365550  0.0843609179399046  0.9400349883956221
  0.8351334371935858  0.5831886412846320  0.4410748414927348
  0.8337593662976185  0.5835158626606995  0.9402351822392394
  0.0023530122786361  0.3290993535086770  0.4410319820678394
  0.0001227211256401  0.3318030564171931  0.9400373858012792
  0.0030113843744144  0.8374026171279372  0.4412849066119275
  0.0014288633536297  0.8344783925905007  0.9401500415853612
  0.3309805693356756  0.3290980175406163  0.4410298307612368
  0.3332102110412986  0.3318028306304225  0.9400327364187241
  0.3303171082810803  0.8374035060932155  0.4412828217039310
  0.3319029574322339  0.8344793540230243  0.9401437667679513
  0.6666689391575034  0.3336770870218346  0.4402828087637122
  0.6666677625391405  0.3338306614295379  0.9405058113824754
  0.6666643817813818  0.8333982344309809  0.4405861843051521
  0.6666666123005599  0.8333772548707050  0.9408107177692110
  0.0033852032045614  0.1643378572000529  0.1946934324725958
  0.0020518567176528  0.1654001030121776  0.6853883018476117
  0.0001290257395029  0.6674550658219628  0.1906246501072230
  0.0004229680900970  0.6673094308046333  0.6904068180064589
  0.3299446233581311  0.1643387051688867  0.1946892824759339
  0.3312822948355478  0.1654036103982237  0.6853827355376095
  0.3332072727794751  0.6674556194445426  0.1906202222804772
  0.3329157643982867  0.6673082874480587  0.6904045131234051
  0.6666642516078805  0.1661631956239580  0.1904576761851062
  0.6666713601340710  0.1665369862152901  0.6902665370459415
  0.6666707550302419  0.6656149759402425  0.1909367150009608
  0.6666707008331306  0.6661680752464644  0.6902721928899580
  0.1666653278637953  0.4164936132805167  0.1896339104805718
  0.1666649593297738  0.4164406829695773  0.6909932593989646
  0.1666655270697356  0.9203926984293932  0.1948455244010911
  0.1666625524856544  0.9189100429537873  0.6852893219181744
  0.4991158612874734  0.4158599905783579  0.1905141873620235
  0.4993810554199231  0.4160045621963535  0.6900773782591034
  0.5001891928281348  0.9164207933259086  0.1899562458269096
  0.4999859958127737  0.9166957181859201  0.6911357465794266
  0.8342166533615657  0.4158613373440026  0.1905152110917141
  0.8339589162260163  0.4160018966707764  0.6900857252037286
  0.8331437299410214  0.9164204790542436  0.1899595879230724
  0.8333444956379877  0.9166938104777059  0.6911347083166526
 
  0.00000000E+00  0.00000000E+00  0.00000000E+00
  0.00000000E+00  0.00000000E+00  0.00000000E+00
  0.00000000E+00  0.00000000E+00  0.00000000E+00
  0.00000000E+00  0.00000000E+00  0.00000000E+00
  0.00000000E+00  0.00000000E+00  0.00000000E+00
  0.00000000E+00  0.00000000E+00  0.00000000E+00
  0.00000000E+00  0.00000000E+00  0.00000000E+00
  0.00000000E+00  0.00000000E+00  0.00000000E+00
  0.00000000E+00  0.00000000E+00  0.00000000E+00
  0.00000000E+00  0.00000000E+00  0.00000000E+00
  0.00000000E+00  0.00000000E+00  0.00000000E+00
  0.00000000E+00  0.00000000E+00  0.00000000E+00
  0.00000000E+00  0.00000000E+00  0.00000000E+00
  0.00000000E+00  0.00000000E+00  0.00000000E+00
  0.00000000E+00  0.00000000E+00  0.00000000E+00
  0.00000000E+00  0.00000000E+00  0.00000000E+00
  0.00000000E+00  0.00000000E+00  0.00000000E+00
  0.00000000E+00  0.00000000E+00  0.00000000E+00
  0.00000000E+00  0.00000000E+00  0.00000000E+00
  0.00000000E+00  0.00000000E+00  0.00000000E+00
  0.00000000E+00  0.00000000E+00  0.00000000E+00
  0.00000000E+00  0.00000000E+00  0.00000000E+00
  0.00000000E+00  0.00000000E+00  0.00000000E+00
  0.00000000E+00  0.00000000E+00  0.00000000E+00
  0.00000000E+00  0.00000000E+00  0.00000000E+00
  0.00000000E+00  0.00000000E+00  0.00000000E+00
  0.00000000E+00  0.00000000E+00  0.00000000E+00
  0.00000000E+00  0.00000000E+00  0.00000000E+00
  0.00000000E+00  0.00000000E+00  0.00000000E+00
  0.00000000E+00  0.00000000E+00  0.00000000E+00
  0.00000000E+00  0.00000000E+00  0.00000000E+00
  0.00000000E+00  0.00000000E+00  0.00000000E+00
  0.00000000E+00  0.00000000E+00  0.00000000E+00
  0.00000000E+00  0.00000000E+00  0.00000000E+00
  0.00000000E+00  0.00000000E+00  0.00000000E+00
  0.00000000E+00  0.00000000E+00  0.00000000E+00
  0.00000000E+00  0.00000000E+00  0.00000000E+00
  0.00000000E+00  0.00000000E+00  0.00000000E+00
  0.00000000E+00  0.00000000E+00  0.00000000E+00
  0.00000000E+00  0.00000000E+00  0.00000000E+00
  0.00000000E+00  0.00000000E+00  0.00000000E+00
  0.00000000E+00  0.00000000E+00  0.00000000E+00
  0.00000000E+00  0.00000000E+00  0.00000000E+00
  0.00000000E+00  0.00000000E+00  0.00000000E+00
  0.00000000E+00  0.00000000E+00  0.00000000E+00
  0.00000000E+00  0.00000000E+00  0.00000000E+00
  0.00000000E+00  0.00000000E+00  0.00000000E+00
  0.00000000E+00  0.00000000E+00  0.00000000E+00
  0.00000000E+00  0.00000000E+00  0.00000000E+00
  0.00000000E+00  0.00000000E+00  0.00000000E+00
  0.00000000E+00  0.00000000E+00  0.00000000E+00
  0.00000000E+00  0.00000000E+00  0.00000000E+00
  0.00000000E+00  0.00000000E+00  0.00000000E+00
  0.00000000E+00  0.00000000E+00  0.00000000E+00
  0.00000000E+00  0.00000000E+00  0.00000000E+00
  0.00000000E+00  0.00000000E+00  0.00000000E+00
  0.00000000E+00  0.00000000E+00  0.00000000E+00
  0.00000000E+00  0.00000000E+00  0.00000000E+00
  0.00000000E+00  0.00000000E+00  0.00000000E+00
  0.00000000E+00  0.00000000E+00  0.00000000E+00
  0.00000000E+00  0.00000000E+00  0.00000000E+00
  0.00000000E+00  0.00000000E+00  0.00000000E+00
  0.00000000E+00  0.00000000E+00  0.00000000E+00
  0.00000000E+00  0.00000000E+00  0.00000000E+00
  0.00000000E+00  0.00000000E+00  0.00000000E+00
  0.00000000E+00  0.00000000E+00  0.00000000E+00
  0.00000000E+00  0.00000000E+00  0.00000000E+00
  0.00000000E+00  0.00000000E+00  0.00000000E+00
  0.00000000E+00  0.00000000E+00  0.00000000E+00
  0.00000000E+00  0.00000000E+00  0.00000000E+00
  0.00000000E+00  0.00000000E+00  0.00000000E+00
  0.00000000E+00  0.00000000E+00  0.00000000E+00
  0.00000000E+00  0.00000000E+00  0.00000000E+00
  0.00000000E+00  0.00000000E+00  0.00000000E+00
  0.00000000E+00  0.00000000E+00  0.00000000E+00
  0.00000000E+00  0.00000000E+00  0.00000000E+00
  0.00000000E+00  0.00000000E+00  0.00000000E+00
  0.00000000E+00  0.00000000E+00  0.00000000E+00
  0.00000000E+00  0.00000000E+00  0.00000000E+00
  0.00000000E+00  0.00000000E+00  0.00000000E+00
  0.00000000E+00  0.00000000E+00  0.00000000E+00
  0.00000000E+00  0.00000000E+00  0.00000000E+00
  0.00000000E+00  0.00000000E+00  0.00000000E+00
  0.00000000E+00  0.00000000E+00  0.00000000E+00
  0.00000000E+00  0.00000000E+00  0.00000000E+00
  0.00000000E+00  0.00000000E+00  0.00000000E+00
  0.00000000E+00  0.00000000E+00  0.00000000E+00
  0.00000000E+00  0.00000000E+00  0.00000000E+00
  0.00000000E+00  0.00000000E+00  0.00000000E+00
  0.00000000E+00  0.00000000E+00  0.00000000E+00
  0.00000000E+00  0.00000000E+00  0.00000000E+00
  0.00000000E+00  0.00000000E+00  0.00000000E+00
  0.00000000E+00  0.00000000E+00  0.00000000E+00
  0.00000000E+00  0.00000000E+00  0.00000000E+00
  0.00000000E+00  0.00000000E+00  0.00000000E+00
