This file is generated by VASPKIT code  
    1.000000000000000     
    12.9960000000000004    0.0000000000000000    0.0000000000000000
     0.0000000000000000   11.2548661479999996    0.0000000000000000
     0.0000000000000000    0.0000000000000000   10.4097960000000000
   Zn   O 
    63    64
Direct
  0.1266168967817787  0.0844208408723194  0.2523026629707962
  0.1264859987453043  0.0842260863701159  0.7489226365825825
  0.1270265981682388  0.5816153528953436  0.2509314840868544
  0.1260674264071867  0.5827368620530583  0.7485291458085751
  0.3750000499999970  0.0832277889239517  0.2498740739835821
  0.3750000499999970  0.0833470360587484  0.7485780903253446
  0.3750000499999970  0.5828952718293349  0.2494667866305193
  0.3750000499999970  0.5829901124029163  0.7485915501271052
  0.6233832032182155  0.0844208408723194  0.2523026629707962
  0.6235141012546898  0.0842260863701159  0.7489226365825825
  0.6229735018317551  0.5816153528953436  0.2509314840868544
  0.6239326735928077  0.5827368620530583  0.7485291458085751
  0.8750000499999970  0.0933509210166151  0.2540832456975635
  0.8750000499999970  0.0835004251840144  0.7404767349892974
  0.8750000499999970  0.5816911277590318  0.2527332545771556
  0.8750000499999970  0.5818913100493810  0.7494510051670442
  0.0009991979497955  0.3353687856196019  0.2514253512726366
  0.0007414328843254  0.3339735442901728  0.7487962216162256
  0.0079802359214528  0.8278859820961812  0.2542574108776032
  0.0001593965055744  0.8332220094257700  0.7407848749555819
  0.2507476443305823  0.3331080392866836  0.2495261882397972
  0.2508002570277114  0.3336257210750244  0.7484145074844016
  0.2518933075925817  0.8326537346601462  0.2508756960864376
  0.2508702674086740  0.8328737703953742  0.7483649647601355
  0.4992524556694118  0.3331080392866836  0.2495261882397972
  0.4991998429722826  0.3336257210750244  0.7484145074844016
  0.4981067924074123  0.8326537346601462  0.2508756960864376
  0.4991298325913201  0.8328737703953742  0.7483649647601355
  0.7490009020501985  0.3353687856196019  0.2514253512726366
  0.7492586671156687  0.3339735442901728  0.7487962216162256
  0.7420198640785413  0.8278859820961812  0.2542574108776032
  0.7498407034944197  0.8332220094257700  0.7407848749555819
  0.0017109250258883  0.1681210133244707  0.5004954212626537
  0.0078425230977863  0.1715262826019005  0.0037452404293852
  0.0006157321562382  0.6643669379089107  0.5007344036502205
  0.0001839353792200  0.6571307708976510  0.0038437845080119
  0.2509399777546101  0.1674056193794053  0.4996614309258082
  0.2522488013451011  0.1681415044093510 -0.0004785299589377
  0.2505952032865753  0.6664970140826949  0.4997119576986474
  0.2511213600491811  0.6659679008620263 -0.0000104971982430
  0.4990598472453931  0.1674056193794053  0.4996614309258082
  0.4977510236549022  0.1681415044093510 -0.0004785299589377
  0.4994046217134280  0.6664970140826949  0.4997119576986474
  0.4988784649508222  0.6659679008620263 -0.0000104971982430
  0.7482888999741151  0.1681210133244707  0.5004954212626537
  0.7421573019022168  0.1715262826019005  0.0037452404293852
  0.7493840928437652  0.6643669379089107  0.5007344036502205
  0.7498158896207834  0.6571307708976510  0.0038437845080119
  0.1259708868732318  0.4165727222093027  0.4999017015478185
  0.1269019391937272  0.4164401701562503 -0.0006225005121233
  0.1269083048153170  0.9175289682314722  0.5005322567573188
  0.1324038260608702  0.9215138867321596  0.0034745961781733
  0.3749999125000016  0.4170560589785861  0.4985521226996620
  0.3749999125000016  0.4171857077710105 -0.0007842334783281
  0.3749999125000016  0.9171334668853115  0.4997177595879783
  0.3749999125000016  0.9169982481957504 -0.0007564046974037
  0.6240289381267717  0.4165727222093027  0.4999017015478185
  0.6230978858062761  0.4164401701562503 -0.0006225005121233
  0.6230915201846861  0.9175289682314722  0.5005322567573188
  0.6175959989391330  0.9215138867321596  0.0034745961781733
  0.8749999125000016  0.4162690711163490  0.5009528138029987
  0.8749999125000016  0.4151343088169566  0.0009790327332270
  0.8749999125000016  0.9166791386698595  0.4979189571995074
  0.1250539581930982  0.0833707942927314  0.4415054422741310
  0.1258137082013107  0.0837620492391919  0.9401901324045512
  0.1251610169601712  0.5833672704583267  0.4405232786181526
  0.1252811842744764  0.5835473499469135  0.9397314245139190
  0.3750000499999970  0.0831241603401475  0.4398032129996280
  0.3750000499999970  0.0825996209271693  0.9392478936489649
  0.3750000499999970  0.5836699439308184  0.4394614780961614
  0.3750000499999970  0.5834825308008783  0.9392712477772642
  0.6249461418068958  0.0833707942927314  0.4415054422741310
  0.6241863917986831  0.0837620492391919  0.9401901324045512
  0.6248390830398228  0.5833672704583267  0.4405232786181526
  0.6247189157255176  0.5835473499469135  0.9397314245139190
  0.8750000499999970  0.0839779060466016  0.4424470759173174
  0.8750000499999970  0.1049111263815150  0.9339865767897660
  0.8750000499999970  0.5833206154396011  0.4419614999138882
  0.8750000499999970  0.5824524130968405  0.9407743225231948
  0.0000299910017964  0.3336167689802812  0.4409882019038860
  0.0001876526736528  0.3339282195027078  0.9401084682059953
  0.0004358680726479  0.8329151747473854  0.4425002148355058
  0.0156568118733671  0.8228279071396768  0.9340456220239937
  0.2499882715843527  0.3332770271074283  0.4395659635520515
  0.2503242254207813  0.3334665039435181  0.9391321205733579
  0.2499811281377004  0.8333036306014052  0.4405029246572539
  0.2500954719725260  0.8326804641426475  0.9396305109301586
  0.5000118284156412  0.3332770271074283  0.4395659635520515
  0.4996758745792128  0.3334665039435181  0.9391321205733579
  0.5000189718622938  0.8333036306014052  0.4405029246572539
  0.4999046280274679  0.8326804641426475  0.9396305109301586
  0.7499701089981977  0.3336167689802812  0.4409882019038860
  0.7498124473263413  0.3339282195027078  0.9401084682059953
  0.7495642319273463  0.8329151747473854  0.4425002148355058
  0.7343432881266269  0.8228279071396768  0.9340456220239937
  0.0005767249479782  0.1668913140627672  0.1913017976925667
  0.0002857676055963  0.1664241615814906  0.6912706391762952
 -0.0001265150698017  0.6655529878511619  0.1914251352582278
  0.9996894147005760  0.6663986113646384  0.6914894068893551
  0.2499856252437847  0.1664762100123203  0.1894894870214626
  0.2502213483095944  0.1669283999467691  0.6899859313991173
  0.2498008532564784  0.6670569179424306  0.1899402213931761
  0.2498827021539325  0.6669130556493434  0.6901311444762508
  0.5000141997562185  0.1664762100123203  0.1894894870214626
  0.4997784766904089  0.1669283999467691  0.6899859313991173
  0.5001989717435243  0.6670569179424306  0.1899402213931761
  0.5001171228460708  0.6669130556493434  0.6901311444762508
  0.7494231000520251  0.1668913140627672  0.1913017976925667
  0.7497140573944069  0.1664241615814906  0.6912706391762952
  0.7501263400698052  0.6655529878511619  0.1914251352582278
  0.7503104102994272  0.6663986113646384  0.6914894068893551
  0.1252454330287108  0.4163300229575279  0.1892041041636232
  0.1250792100612882  0.4166370333377539  0.6902881223821641
  0.1253613895411362  0.9173066562103466  0.1911256990026380
  0.1249205989965147  0.9170709999409283  0.6912213520070879
  0.3749999125000016  0.4167727208406565  0.1893114335603996
  0.3749999125000016  0.4170646972570818  0.6889929452540475
  0.3749999125000016  0.9168621159185359  0.1891199410099706
  0.3749999125000016  0.9167373418233091  0.6900912752891037
  0.6247543919712926  0.4163300229575279  0.1892041041636232
  0.6249206149387150  0.4166370333377539  0.6902881223821641
  0.6246384354588674  0.9173066562103466  0.1911256990026380
  0.6250792260034889  0.9170709999409283  0.6912213520070879
  0.8749999125000016  0.4161851650861435  0.1906535505878127
  0.8749999125000016  0.4159634693255030  0.6912781754730792
  0.8749999125000016  0.9163029858980366  0.2161896023594592
  0.8749999125000016  0.9166056166394551  0.6907636506840822
 
  0.00000000E+00  0.00000000E+00  0.00000000E+00
  0.00000000E+00  0.00000000E+00  0.00000000E+00
  0.00000000E+00  0.00000000E+00  0.00000000E+00
  0.00000000E+00  0.00000000E+00  0.00000000E+00
  0.00000000E+00  0.00000000E+00  0.00000000E+00
  0.00000000E+00  0.00000000E+00  0.00000000E+00
  0.00000000E+00  0.00000000E+00  0.00000000E+00
  0.00000000E+00  0.00000000E+00  0.00000000E+00
  0.00000000E+00  0.00000000E+00  0.00000000E+00
  0.00000000E+00  0.00000000E+00  0.00000000E+00
  0.00000000E+00  0.00000000E+00  0.00000000E+00
  0.00000000E+00  0.00000000E+00  0.00000000E+00
  0.00000000E+00  0.00000000E+00  0.00000000E+00
  0.00000000E+00  0.00000000E+00  0.00000000E+00
  0.00000000E+00  0.00000000E+00  0.00000000E+00
  0.00000000E+00  0.00000000E+00  0.00000000E+00
  0.00000000E+00  0.00000000E+00  0.00000000E+00
  0.00000000E+00  0.00000000E+00  0.00000000E+00
  0.00000000E+00  0.00000000E+00  0.00000000E+00
  0.00000000E+00  0.00000000E+00  0.00000000E+00
  0.00000000E+00  0.00000000E+00  0.00000000E+00
  0.00000000E+00  0.00000000E+00  0.00000000E+00
  0.00000000E+00  0.00000000E+00  0.00000000E+00
  0.00000000E+00  0.00000000E+00  0.00000000E+00
  0.00000000E+00  0.00000000E+00  0.00000000E+00
  0.00000000E+00  0.00000000E+00  0.00000000E+00
  0.00000000E+00  0.00000000E+00  0.00000000E+00
  0.00000000E+00  0.00000000E+00  0.00000000E+00
  0.00000000E+00  0.00000000E+00  0.00000000E+00
  0.00000000E+00  0.00000000E+00  0.00000000E+00
  0.00000000E+00  0.00000000E+00  0.00000000E+00
  0.00000000E+00  0.00000000E+00  0.00000000E+00
  0.00000000E+00  0.00000000E+00  0.00000000E+00
  0.00000000E+00  0.00000000E+00  0.00000000E+00
  0.00000000E+00  0.00000000E+00  0.00000000E+00
  0.00000000E+00  0.00000000E+00  0.00000000E+00
  0.00000000E+00  0.00000000E+00  0.00000000E+00
  0.00000000E+00  0.00000000E+00  0.00000000E+00
  0.00000000E+00  0.00000000E+00  0.00000000E+00
  0.00000000E+00  0.00000000E+00  0.00000000E+00
  0.00000000E+00  0.00000000E+00  0.00000000E+00
  0.00000000E+00  0.00000000E+00  0.00000000E+00
  0.00000000E+00  0.00000000E+00  0.00000000E+00
  0.00000000E+00  0.00000000E+00  0.00000000E+00
  0.00000000E+00  0.00000000E+00  0.00000000E+00
  0.00000000E+00  0.00000000E+00  0.00000000E+00
  0.00000000E+00  0.00000000E+00  0.00000000E+00
  0.00000000E+00  0.00000000E+00  0.00000000E+00
  0.00000000E+00  0.00000000E+00  0.00000000E+00
  0.00000000E+00  0.00000000E+00  0.00000000E+00
  0.00000000E+00  0.00000000E+00  0.00000000E+00
  0.00000000E+00  0.00000000E+00  0.00000000E+00
  0.00000000E+00  0.00000000E+00  0.00000000E+00
  0.00000000E+00  0.00000000E+00  0.00000000E+00
  0.00000000E+00  0.00000000E+00  0.00000000E+00
  0.00000000E+00  0.00000000E+00  0.00000000E+00
  0.00000000E+00  0.00000000E+00  0.00000000E+00
  0.00000000E+00  0.00000000E+00  0.00000000E+00
  0.00000000E+00  0.00000000E+00  0.00000000E+00
  0.00000000E+00  0.00000000E+00  0.00000000E+00
  0.00000000E+00  0.00000000E+00  0.00000000E+00
  0.00000000E+00  0.00000000E+00  0.00000000E+00
  0.00000000E+00  0.00000000E+00  0.00000000E+00
  0.00000000E+00  0.00000000E+00  0.00000000E+00
  0.00000000E+00  0.00000000E+00  0.00000000E+00
  0.00000000E+00  0.00000000E+00  0.00000000E+00
  0.00000000E+00  0.00000000E+00  0.00000000E+00
  0.00000000E+00  0.00000000E+00  0.00000000E+00
  0.00000000E+00  0.00000000E+00  0.00000000E+00
  0.00000000E+00  0.00000000E+00  0.00000000E+00
  0.00000000E+00  0.00000000E+00  0.00000000E+00
  0.00000000E+00  0.00000000E+00  0.00000000E+00
  0.00000000E+00  0.00000000E+00  0.00000000E+00
  0.00000000E+00  0.00000000E+00  0.00000000E+00
  0.00000000E+00  0.00000000E+00  0.00000000E+00
  0.00000000E+00  0.00000000E+00  0.00000000E+00
  0.00000000E+00  0.00000000E+00  0.00000000E+00
  0.00000000E+00  0.00000000E+00  0.00000000E+00
  0.00000000E+00  0.00000000E+00  0.00000000E+00
  0.00000000E+00  0.00000000E+00  0.00000000E+00
  0.00000000E+00  0.00000000E+00  0.00000000E+00
  0.00000000E+00  0.00000000E+00  0.00000000E+00
  0.00000000E+00  0.00000000E+00  0.00000000E+00
  0.00000000E+00  0.00000000E+00  0.00000000E+00
  0.00000000E+00  0.00000000E+00  0.00000000E+00
  0.00000000E+00  0.00000000E+00  0.00000000E+00
  0.00000000E+00  0.00000000E+00  0.00000000E+00
  0.00000000E+00  0.00000000E+00  0.00000000E+00
  0.00000000E+00  0.00000000E+00  0.00000000E+00
  0.00000000E+00  0.00000000E+00  0.00000000E+00
  0.00000000E+00  0.00000000E+00  0.00000000E+00
  0.00000000E+00  0.00000000E+00  0.00000000E+00
  0.00000000E+00  0.00000000E+00  0.00000000E+00
  0.00000000E+00  0.00000000E+00  0.00000000E+00
  0.00000000E+00  0.00000000E+00  0.00000000E+00
  0.00000000E+00  0.00000000E+00  0.00000000E+00
  0.00000000E+00  0.00000000E+00  0.00000000E+00
  0.00000000E+00  0.00000000E+00  0.00000000E+00
  0.00000000E+00  0.00000000E+00  0.00000000E+00
  0.00000000E+00  0.00000000E+00  0.00000000E+00
  0.00000000E+00  0.00000000E+00  0.00000000E+00
  0.00000000E+00  0.00000000E+00  0.00000000E+00
  0.00000000E+00  0.00000000E+00  0.00000000E+00
  0.00000000E+00  0.00000000E+00  0.00000000E+00
  0.00000000E+00  0.00000000E+00  0.00000000E+00
  0.00000000E+00  0.00000000E+00  0.00000000E+00
  0.00000000E+00  0.00000000E+00  0.00000000E+00
  0.00000000E+00  0.00000000E+00  0.00000000E+00
  0.00000000E+00  0.00000000E+00  0.00000000E+00
  0.00000000E+00  0.00000000E+00  0.00000000E+00
  0.00000000E+00  0.00000000E+00  0.00000000E+00
  0.00000000E+00  0.00000000E+00  0.00000000E+00
  0.00000000E+00  0.00000000E+00  0.00000000E+00
  0.00000000E+00  0.00000000E+00  0.00000000E+00
  0.00000000E+00  0.00000000E+00  0.00000000E+00
  0.00000000E+00  0.00000000E+00  0.00000000E+00
  0.00000000E+00  0.00000000E+00  0.00000000E+00
  0.00000000E+00  0.00000000E+00  0.00000000E+00
  0.00000000E+00  0.00000000E+00  0.00000000E+00
  0.00000000E+00  0.00000000E+00  0.00000000E+00
  0.00000000E+00  0.00000000E+00  0.00000000E+00
  0.00000000E+00  0.00000000E+00  0.00000000E+00
  0.00000000E+00  0.00000000E+00  0.00000000E+00
  0.00000000E+00  0.00000000E+00  0.00000000E+00
  0.00000000E+00  0.00000000E+00  0.00000000E+00
  0.00000000E+00  0.00000000E+00  0.00000000E+00
  0.00000000E+00  0.00000000E+00  0.00000000E+00
