This file is generated by VASPKIT code  
       1.0 
    12.9960002898999996  0.0000000000000000  0.0000000000000000 
     0.0000000000000000 16.8822998999999996  0.0000000000000000 
     0.0000000000000000  0.0000000000000000 15.6146936416499997 
  Zn    O
  143   144
Direct
  0.0999998510000000  0.3226720993333334  0.2671013633333333
  0.0999998510000000  0.3227622220000000  0.6007508199999999
  0.0999998510000000  0.6560439573333333  0.5999736946666666
  0.0999998510000000  0.6561303840000000  0.2670828066666667
  0.1000000000000000  0.4334917773333334  0.4341883420000000
  0.1000000000000000  0.4335712900000000  0.0999910200000000
  0.1000000000000000  0.0999367793333333  0.4339168233333334
  0.1000000000000000  0.1000000000000000  0.1000000000000000
  0.2227509600000000  0.4901009306666667  0.2672866146666666
  0.2231067110000000  0.2664424286666667  0.4348560733333333
  0.2238784120000000  0.1553185093333334  0.2675986453333333
  0.2240597890000000  0.4896103446666667  0.6007132693333334
  0.2241297650000000  0.2665890960000000  0.0998489620000000
  0.2241997700000000  0.6004237640000000  0.0998819826666667
  0.2242524010000000  0.6000786133333333  0.4339564406666667
  0.2244045420000000  0.1556712493333333  0.6007469259999999
  0.3425959040000000  0.3256825313333333  0.2699220340000000
  0.3479734350000000  0.0990834793333333  0.4348932666666667
  0.3480914520000000  0.3230259126666666  0.6012938186666666
  0.3480978300000000  0.6556333606666667  0.2671906313333333
  0.3483831570000000  0.4342871413333333  0.4358074033333333
  0.3485140490000000  0.4341573226666667  0.1002207360000000
  0.3489325930000000  0.0998311600000000  0.0999583960000000
  0.3490288540000000  0.6557217346666666  0.6008734466666666
  0.4670198250000000  0.2632639120000000  0.4371105593333333
  0.4671572130000000  0.4923574433333334  0.2701024573333333
  0.4732888630000000  0.4900872613333333  0.6012692613333334
  0.4740008400000000  0.6015857766666667  0.4352225226666666
  0.4742585700000000  0.6006556260000000  0.1001364553333333
  0.4743840380000000  0.1542512286666667  0.6014285646666666
  0.4748158140000000  0.1494271066666667  0.2701681613333333
  0.4748406100000000  0.2668212760000001  0.0947955613333333
  0.5999999030000001  0.6547628153333334  0.2682583293333333
  0.5999999030000001  0.6555193173333334  0.6015741986666666
  0.5999999030000001  0.3224593506666667  0.5995516140000000
  0.6000000219999999  0.0992674586666667  0.1005729600000000
  0.6000000219999999  0.4402405326666666  0.4369944493333333
  0.6000000219999999  0.4336735313333334  0.0945901240000000
  0.6000000219999999  0.0991340240000000  0.4360944593333334
  0.7251593460000001  0.2668212760000001  0.0947955613333333
  0.7251839030000000  0.1494271066666667  0.2701681613333333
  0.7256156789999999  0.1542512286666667  0.6014285646666666
  0.7257413850000001  0.6006556260000000  0.1001364553333333
  0.7259991160000001  0.6015857766666667  0.4352225226666666
  0.7267108550000001  0.4900872613333333  0.6012692613333334
  0.7328424440000001  0.4923574433333334  0.2701024573333333
  0.7329801899999999  0.2632639120000000  0.4371105593333333
  0.8509708030000001  0.6557217346666666  0.6008734466666666
  0.8510673630000001  0.0998311600000000  0.0999583960000000
  0.8514859660000000  0.4341573226666667  0.1002207360000000
  0.8516168580000001  0.4342871413333333  0.4358074033333333
  0.8519018869999999  0.6556333606666667  0.2671906313333333
  0.8519082650000001  0.3230259126666666  0.6012938186666666
  0.8520265210000000  0.0990834793333333  0.4348932666666667
  0.8574037539999999  0.3256825313333333  0.2699220340000000
  0.9755951750000000  0.1556712493333333  0.6007469259999999
  0.9757475840000001  0.6000786133333333  0.4339564406666667
  0.9758002150000000  0.6004237640000000  0.0998819826666667
  0.9758701910000001  0.2665890960000000  0.0998489620000000
  0.9759399280000001  0.4896103446666667  0.6007132693333334
  0.9761213049999999  0.1553185093333334  0.2675986453333333
  0.9768932450000001  0.2664424286666667  0.4348560733333333
  0.9772487270000001  0.4901009306666667  0.2672866146666666
0.975000024   0.155599996   0.93333298
0.975000024   0.488933325   0.93333298
0.975000024   0.822266638   0.266666323
0.975000024   0.822266638   0.599999666
0.975000024   0.822266638   0.93333298
0.975000143   0.266711056   0.766666353
0.975000143   0.60004437   0.766666353
0.975000143   0.933377683   0.099999681
0.975000143   0.933377683   0.433333009
0.975000143   0.933377683   0.766666353
0.099999994   0.322266668   0.93333298
0.099999994   0.655600011   0.93333298
0.099999994   0.988933325   0.266666323
0.099999994   0.988933325   0.599999666
0.099999994   0.988933325   0.93333298
0.100000143   0.100044385   0.766666353
0.100000143   0.433377713   0.766666353
0.100000143   0.766711056   0.099999681
0.100000143   0.766711056   0.433333009
0.100000143   0.766711056   0.766666353
0.224999994   0.155599996   0.93333298
0.224999994   0.488933325   0.93333298
0.224999994   0.822266638   0.266666323
0.224999994   0.822266638   0.599999666
0.224999994   0.822266638   0.93333298
0.225000143   0.266711056   0.766666353
0.225000143   0.60004437   0.766666353
0.225000143   0.933377683   0.099999681
0.225000143   0.933377683   0.433333009
0.225000143   0.933377683   0.766666353
0.349999994   0.322266668   0.93333298
0.349999994   0.655600011   0.93333298
0.349999994   0.988933325   0.266666323
0.349999994   0.988933325   0.599999666
0.349999994   0.988933325   0.93333298
0.350000143   0.100044385   0.766666353
0.350000143   0.433377713   0.766666353
0.350000143   0.766711056   0.099999681
0.350000143   0.766711056   0.433333009
0.350000143   0.766711056   0.766666353
0.475000024   0.155599996   0.93333298
0.475000024   0.488933325   0.93333298
0.475000024   0.822266638   0.266666323
0.475000024   0.822266638   0.599999666
0.475000024   0.822266638   0.93333298
0.475000143   0.266711056   0.766666353
0.475000143   0.60004437   0.766666353
0.475000143   0.933377683   0.099999681
0.475000143   0.933377683   0.433333009
0.475000143   0.933377683   0.766666353
0.600000024   0.322266668   0.93333298
0.600000024   0.655600011   0.93333298
0.600000024   0.988933325   0.266666323
0.600000024   0.988933325   0.599999666
0.600000024   0.988933325   0.93333298
0.600000143   0.100044385   0.766666353
0.600000143   0.433377713   0.766666353
0.600000143   0.766711056   0.099999681
0.600000143   0.766711056   0.433333009
0.600000143   0.766711056   0.766666353
0.725000024   0.155599996   0.93333298
0.725000024   0.488933325   0.93333298
0.725000024   0.822266638   0.266666323
0.725000024   0.822266638   0.599999666
0.725000024   0.822266638   0.93333298
0.725000143   0.266711056   0.766666353
0.725000143   0.60004437   0.766666353
0.725000143   0.933377683   0.099999681
0.725000143   0.933377683   0.433333009
0.725000143   0.933377683   0.766666353
0.850000024   0.322266668   0.93333298
0.850000024   0.655600011   0.93333298
0.850000024   0.988933325   0.266666323
0.850000024   0.988933325   0.599999666
0.850000024   0.988933325   0.93333298
0.850000143   0.100044385   0.766666353
0.850000143   0.433377713   0.766666353
0.850000143   0.766711056   0.099999681
0.850000143   0.766711056   0.433333009
0.850000143   0.766711056   0.766666353
  0.0999998510000000  0.3224981333333333  0.0609998046666667
  0.0999998510000000  0.3225813413333333  0.3936855953333334
  0.0999998510000000  0.6558550900000000  0.3938132686666667
  0.0999998510000000  0.6560497193333333  0.0602675813333333
  0.1000000000000000  0.4330729946666667  0.2271042426666667
  0.1000000000000000  0.4334227153333333  0.5608077606666667
  0.1000000000000000  0.1003282626666667  0.2271198193333334
  0.1000000000000000  0.1004532333333333  0.5605799520000000
  0.2246758030000000  0.6003175880000000  0.2270270346666667
  0.2247784120000000  0.4892921753333334  0.0609295900000000
  0.2249045660000000  0.2664602306666667  0.2273593106666666
  0.2250117350000000  0.6001912659999999  0.5606496099999999
  0.2250141190000000  0.4889907346666667  0.3939319613333334
  0.2250188870000000  0.2668756753333333  0.5612742266666667
  0.2251170560000000  0.1559486100000000  0.0610263880000000
  0.2251988930000000  0.1560445333333333  0.3942324480000000
  0.3491863300000000  0.4338479746666667  0.2277323960000000
  0.3496383710000000  0.3228776960000000  0.3950227660000001
  0.3497188380000000  0.1003714960000000  0.2274265846666667
  0.3497543020000000  0.6555599280000000  0.3937417033333334
  0.3498390000000000  0.1002514520000000  0.5612878166666667
  0.3499205400000000  0.6557646106666667  0.0611310540000000
  0.3499460500000000  0.4335871046666667  0.5619425933333333
  0.3500791480000000  0.3227205780000000  0.0617532073333333
  0.4593432230000000  0.2598918786666667  0.2236360473333333
  0.4744230200000000  0.4892674593333333  0.3951401473333334
  0.4745641630000000  0.2666167126666667  0.5626057546666666
  0.4747140100000000  0.4889560446666666  0.0617860693333333
  0.4748123570000000  0.6006254266666666  0.2276779573333333
  0.4749700710000000  0.6004177640000000  0.5615977606666667
  0.4751262950000000  0.1550419040000000  0.3952224020000000
  0.4753103540000000  0.1556056446666667  0.0619319020000000
  0.5999999030000001  0.3222085740000000  0.4117320540000000
  0.5999999030000001  0.3224103160000000  0.0614480713333333
  0.5999999030000001  0.6553155886666666  0.0617910760000000
  0.5999999030000001  0.6554633686666667  0.3947080140000000
  0.6000000219999999  0.4339918600000000  0.5625703493333333
  0.6000000219999999  0.4479473340000000  0.2235967080000000
  0.6000000219999999  0.0996415373333333  0.2281218533333333
  0.6000000219999999  0.1002203380000000  0.5622466166666666
  0.7246893630000000  0.1556056446666667  0.0619319020000000
  0.7248734219999999  0.1550419040000000  0.3952224020000000
  0.7250299440000001  0.6004177640000000  0.5615977606666667
  0.7251875980000000  0.6006254266666666  0.2276779573333333
  0.7252857079999999  0.4889560446666666  0.0617860693333333
  0.7254357920000001  0.2666167126666667  0.5626057546666666
  0.7255766379999999  0.4892674593333333  0.3951401473333334
  0.7406567319999999  0.2598918786666667  0.2236360473333333
  0.8499205100000000  0.3227205780000000  0.0617532073333333
  0.8500539050000000  0.4335871046666667  0.5619425933333333
  0.8500791770000000  0.6557646106666667  0.0611310540000000
  0.8501609550000000  0.1002514520000000  0.5612878166666667
  0.8502453550000000  0.6555599280000000  0.3937417033333334
  0.8502811180000001  0.1003714960000000  0.2274265846666667
  0.8503613459999999  0.3228776960000000  0.3950227660000001
  0.8508136260000001  0.4338479746666667  0.2277323960000000
  0.9748007640000000  0.1560445333333333  0.3942324480000000
  0.9748826610000001  0.1559486100000000  0.0610263880000000
  0.9749810680000000  0.2668756753333333  0.5612742266666667
  0.9749855390000000  0.4889907346666667  0.3939319613333334
  0.9749882210000000  0.6001912659999999  0.5606496099999999
  0.9750954490000001  0.2664602306666667  0.2273593106666666
  0.9752212750000000  0.4892921753333334  0.0609295900000000
  0.9753241530000001  0.6003175880000000  0.2270270346666667
0.975000024   0.155599996   0.727031946
0.975000024   0.488933325   0.727031946
0.975000024   0.822266638   0.060365245
0.975000024   0.822266638   0.393698543
0.975000024   0.822266638   0.727031946
0.975000143   0.266711056   0.893698573
0.975000143   0.60004437   0.893698573
0.975000143   0.933377683   0.227031901
0.975000143   0.933377683   0.56036526
0.975000143   0.933377683   0.893698573
0.099999994   0.322266668   0.727031946
0.099999994   0.655600011   0.727031946
0.099999994   0.988933325   0.060365245
0.099999994   0.988933325   0.393698543
0.099999994   0.988933325   0.727031946
0.100000143   0.100044385   0.893698573
0.100000143   0.433377713   0.893698573
0.100000143   0.766711056   0.227031901
0.100000143   0.766711056   0.56036526
0.100000143   0.766711056   0.893698573
0.224999994   0.155599996   0.727031946
0.224999994   0.488933325   0.727031946
0.224999994   0.822266638   0.060365245
0.224999994   0.822266638   0.393698543
0.224999994   0.822266638   0.727031946
0.225000143   0.266711056   0.893698573
0.225000143   0.60004437   0.893698573
0.225000143   0.933377683   0.227031901
0.225000143   0.933377683   0.56036526
0.225000143   0.933377683   0.893698573
0.349999994   0.322266668   0.727031946
0.349999994   0.655600011   0.727031946
0.349999994   0.988933325   0.060365245
0.349999994   0.988933325   0.393698543
0.349999994   0.988933325   0.727031946
0.350000143   0.100044385   0.893698573
0.350000143   0.433377713   0.893698573
0.350000143   0.766711056   0.227031901
0.350000143   0.766711056   0.56036526
0.350000143   0.766711056   0.893698573
0.475000024   0.155599996   0.727031946
0.475000024   0.488933325   0.727031946
0.475000024   0.822266638   0.060365245
0.475000024   0.822266638   0.393698543
0.475000024   0.822266638   0.727031946
0.475000143   0.266711056   0.893698573
0.475000143   0.60004437   0.893698573
0.475000143   0.933377683   0.227031901
0.475000143   0.933377683   0.56036526
0.475000143   0.933377683   0.893698573
0.600000024   0.322266668   0.727031946
0.600000024   0.655600011   0.727031946
0.600000024   0.988933325   0.060365245
0.600000024   0.988933325   0.393698543
0.600000024   0.988933325   0.727031946
0.600000143   0.100044385   0.893698573
0.600000143   0.433377713   0.893698573
0.600000143   0.766711056   0.227031901
0.600000143   0.766711056   0.56036526
0.600000143   0.766711056   0.893698573
0.725000024   0.155599996   0.727031946
0.725000024   0.488933325   0.727031946
0.725000024   0.822266638   0.060365245
0.725000024   0.822266638   0.393698543
0.725000024   0.822266638   0.727031946
0.725000143   0.266711056   0.893698573
0.725000143   0.60004437   0.893698573
0.725000143   0.933377683   0.227031901
0.725000143   0.933377683   0.56036526
0.725000143   0.933377683   0.893698573
0.850000024   0.322266668   0.727031946
0.850000024   0.655600011   0.727031946
0.850000024   0.988933325   0.060365245
0.850000024   0.988933325   0.393698543
0.850000024   0.988933325   0.727031946
0.850000143   0.100044385   0.893698573
0.850000143   0.433377713   0.893698573
0.850000143   0.766711056   0.227031901
0.850000143   0.766711056   0.56036526
0.850000143   0.766711056   0.893698573
