This file is generated by VASPKIT code  
1.0
       12.9960002899         0.0000000000         0.0000000000
        0.0000000000        16.8822994232         0.0000000000
        0.0000000000         0.0000000000        15.6146936417
   Zn    O
   143   144
Direct
     0.849943161         0.432893693         0.433632433
     0.850616932         0.432859093         0.099382810
     0.850063622         0.099990472         0.432889521
     0.849282205         0.100294262         0.099744931
     0.100000061         0.433017462         0.433699459
     0.100000061         0.433079451         0.100105703
     0.100000061         0.099895544         0.433477104
     0.100000061         0.100001484         0.100000240
     0.350057095         0.432893693         0.433632433
     0.349383265         0.432859093         0.099382810
     0.349936575         0.099990472         0.432889521
     0.350717992         0.100294262         0.099744931
     0.600000143         0.432420701         0.432271510
     0.600000143         0.430791855         0.091851488
     0.600000143         0.100777529         0.432242692
     0.600000143         0.099817142         0.098759234
     0.724918008         0.600654125         0.433995545
     0.725052297         0.599771321         0.099548988
     0.722979486         0.267578214         0.429525495
     0.723542035         0.266932398         0.096464291
     0.975053251         0.599876881         0.433672041
     0.975055814         0.600004077         0.100249425
     0.974992514         0.266295969         0.433181047
     0.974435985         0.266611755         0.099582925
     0.224946916         0.599876881         0.433672041
     0.224944293         0.600004077         0.100249425
     0.225007564         0.266295969         0.433181047
     0.225564092         0.266611755         0.099582925
     0.475082129         0.600654125         0.433995545
     0.474947900         0.599771321         0.099548988
     0.477020651         0.267578214         0.429525495
     0.476458162         0.266932398         0.096464291
     0.725689292         0.489411682         0.599255919
     0.730466127         0.489899904         0.268834203
     0.725176692         0.155544475         0.598102689
     0.723535120         0.155739531         0.266147107
     0.975268304         0.489122987         0.600187361
     0.975956559         0.489127040         0.267152458
     0.974959373         0.155793101         0.599884212
     0.974561214         0.155608565         0.266307771
     0.224731505         0.489122987         0.600187361
     0.224043310         0.489127040         0.267152458
     0.225040466         0.155793101         0.599884212
     0.225438625         0.155608565         0.266307771
     0.474310607         0.489411682         0.599255919
     0.469533712         0.489899904         0.268834203
     0.474823207         0.155544475         0.598102689
     0.476464778         0.155739531         0.266147107
     0.850438595         0.655950367         0.600364149
     0.850225925         0.655894935         0.266849309
     0.850071132         0.322087139         0.598535240
     0.849238157         0.322575361         0.266941160
     0.099999882         0.655904472         0.600334764
     0.099999882         0.655939817         0.266961575
     0.099999882         0.322342455         0.600276589
     0.099999882         0.322276860         0.266975760
     0.349561304         0.655950367         0.600364149
     0.349773914         0.655894935         0.266849309
     0.349928766         0.322087139         0.598535240
     0.350761801         0.322575361         0.266941160
     0.600000024         0.655953109         0.599797726
     0.600000024         0.655649066         0.266955495
     0.600000024         0.321745336         0.591085017
0.975000024   0.155599996   0.93333298
0.975000024   0.488933325   0.93333298
0.975000024   0.822266638   0.266666323
0.975000024   0.822266638   0.599999666
0.975000024   0.822266638   0.93333298
0.975000143   0.266711056   0.766666353
0.975000143   0.60004437   0.766666353
0.975000143   0.933377683   0.099999681
0.975000143   0.933377683   0.433333009
0.975000143   0.933377683   0.766666353
0.099999994   0.322266668   0.93333298
0.099999994   0.655600011   0.93333298
0.099999994   0.988933325   0.266666323
0.099999994   0.988933325   0.599999666
0.099999994   0.988933325   0.93333298
0.100000143   0.100044385   0.766666353
0.100000143   0.433377713   0.766666353
0.100000143   0.766711056   0.099999681
0.100000143   0.766711056   0.433333009
0.100000143   0.766711056   0.766666353
0.224999994   0.155599996   0.93333298
0.224999994   0.488933325   0.93333298
0.224999994   0.822266638   0.266666323
0.224999994   0.822266638   0.599999666
0.224999994   0.822266638   0.93333298
0.225000143   0.266711056   0.766666353
0.225000143   0.60004437   0.766666353
0.225000143   0.933377683   0.099999681
0.225000143   0.933377683   0.433333009
0.225000143   0.933377683   0.766666353
0.349999994   0.322266668   0.93333298
0.349999994   0.655600011   0.93333298
0.349999994   0.988933325   0.266666323
0.349999994   0.988933325   0.599999666
0.349999994   0.988933325   0.93333298
0.350000143   0.100044385   0.766666353
0.350000143   0.433377713   0.766666353
0.350000143   0.766711056   0.099999681
0.350000143   0.766711056   0.433333009
0.350000143   0.766711056   0.766666353
0.475000024   0.155599996   0.93333298
0.475000024   0.488933325   0.93333298
0.475000024   0.822266638   0.266666323
0.475000024   0.822266638   0.599999666
0.475000024   0.822266638   0.93333298
0.475000143   0.266711056   0.766666353
0.475000143   0.60004437   0.766666353
0.475000143   0.933377683   0.099999681
0.475000143   0.933377683   0.433333009
0.475000143   0.933377683   0.766666353
0.600000024   0.322266668   0.93333298
0.600000024   0.655600011   0.93333298
0.600000024   0.988933325   0.266666323
0.600000024   0.988933325   0.599999666
0.600000024   0.988933325   0.93333298
0.600000143   0.100044385   0.766666353
0.600000143   0.433377713   0.766666353
0.600000143   0.766711056   0.099999681
0.600000143   0.766711056   0.433333009
0.600000143   0.766711056   0.766666353
0.725000024   0.155599996   0.93333298
0.725000024   0.488933325   0.93333298
0.725000024   0.822266638   0.266666323
0.725000024   0.822266638   0.599999666
0.725000024   0.822266638   0.93333298
0.725000143   0.266711056   0.766666353
0.725000143   0.60004437   0.766666353
0.725000143   0.933377683   0.099999681
0.725000143   0.933377683   0.433333009
0.725000143   0.933377683   0.766666353
0.850000024   0.322266668   0.93333298
0.850000024   0.655600011   0.93333298
0.850000024   0.988933325   0.266666323
0.850000024   0.988933325   0.599999666
0.850000024   0.988933325   0.93333298
0.850000143   0.100044385   0.766666353
0.850000143   0.433377713   0.766666353
0.850000143   0.766711056   0.099999681
0.850000143   0.766711056   0.433333009
0.850000143   0.766711056   0.766666353
     0.850530982         0.433655381         0.560356319
     0.851063311         0.433362901         0.226642996
     0.850726187         0.099732421         0.559829652
     0.849619567         0.099731594         0.226806059
     0.100000061         0.433404297         0.560615063
     0.100000061         0.433172733         0.227076590
     0.100000061         0.100116245         0.560446620
     0.100000061         0.100253962         0.227017134
     0.349469185         0.433655381         0.560356319
     0.348936886         0.433362901         0.226642996
     0.349273950         0.099732421         0.559829652
     0.350380480         0.099731594         0.226806059
     0.600000143         0.435577184         0.561488867
     0.600000143         0.446401656         0.219791919
     0.600000143         0.099763580         0.559190929
     0.600000143         0.099083371         0.226049528
     0.725428641         0.600633621         0.560740948
     0.724908650         0.599586844         0.226928934
     0.727205992         0.265761226         0.559135735
     0.734812796         0.262386113         0.220593154
     0.975193024         0.600087047         0.560669422
     0.975078642         0.600071192         0.227330223
     0.975691020         0.266657770         0.560113609
     0.975007117         0.266903520         0.226848260
     0.224807084         0.600087047         0.560669422
     0.224921465         0.600071192         0.227330223
     0.224309146         0.266657770         0.560113609
     0.224993005         0.266903520         0.226848260
     0.474571556         0.600633621         0.560740948
     0.475091547         0.599586844         0.226928934
     0.472794145         0.265761226         0.559135735
     0.465187401         0.262386113         0.220593154
     0.725489020         0.489725560         0.393879622
     0.725517571         0.488631487         0.060293965
     0.725589931         0.155040056         0.392541379
     0.724679291         0.154925689         0.058652136
     0.975058794         0.488831282         0.393913895
     0.975307643         0.489015788         0.060591672
     0.975240767         0.155362517         0.393223435
     0.974861979         0.155466259         0.060399625
     0.224941075         0.488831282         0.393913895
     0.224692166         0.489015788         0.060591672
     0.224759042         0.155362517         0.393223435
     0.225137860         0.155466259         0.060399625
     0.474510849         0.489725560         0.393879622
     0.474482387         0.488631487         0.060293965
     0.474410057         0.155040056         0.392541379
     0.475320607         0.154925689         0.058652136
     0.850205779         0.655322313         0.393543631
     0.850004852         0.655466914         0.060764924
     0.851131022         0.322368920         0.393056720
     0.850221932         0.322374523         0.059102826
     0.099999882         0.655444443         0.393859088
     0.099999882         0.655552983         0.060703490
     0.099999882         0.322187215         0.393605053
     0.099999882         0.322069466         0.060686842
     0.349794120         0.655322313         0.393543631
     0.349995047         0.655466914         0.060764924
     0.348868906         0.322368920         0.393056720
     0.349777967         0.322374523         0.059102826
     0.600000024         0.655661285         0.393548489
     0.600000024         0.654924035         0.060249224
     0.600000024         0.323317081         0.403859109
     0.600000024         0.321412951         0.054532107
0.975000024   0.155599996   0.727031946
0.975000024   0.488933325   0.727031946
0.975000024   0.822266638   0.060365245
0.975000024   0.822266638   0.393698543
0.975000024   0.822266638   0.727031946
0.975000143   0.266711056   0.893698573
0.975000143   0.60004437   0.893698573
0.975000143   0.933377683   0.227031901
0.975000143   0.933377683   0.56036526
0.975000143   0.933377683   0.893698573
0.099999994   0.322266668   0.727031946
0.099999994   0.655600011   0.727031946
0.099999994   0.988933325   0.060365245
0.099999994   0.988933325   0.393698543
0.099999994   0.988933325   0.727031946
0.100000143   0.100044385   0.893698573
0.100000143   0.433377713   0.893698573
0.100000143   0.766711056   0.227031901
0.100000143   0.766711056   0.56036526
0.100000143   0.766711056   0.893698573
0.224999994   0.155599996   0.727031946
0.224999994   0.488933325   0.727031946
0.224999994   0.822266638   0.060365245
0.224999994   0.822266638   0.393698543
0.224999994   0.822266638   0.727031946
0.225000143   0.266711056   0.893698573
0.225000143   0.60004437   0.893698573
0.225000143   0.933377683   0.227031901
0.225000143   0.933377683   0.56036526
0.225000143   0.933377683   0.893698573
0.349999994   0.322266668   0.727031946
0.349999994   0.655600011   0.727031946
0.349999994   0.988933325   0.060365245
0.349999994   0.988933325   0.393698543
0.349999994   0.988933325   0.727031946
0.350000143   0.100044385   0.893698573
0.350000143   0.433377713   0.893698573
0.350000143   0.766711056   0.227031901
0.350000143   0.766711056   0.56036526
0.350000143   0.766711056   0.893698573
0.475000024   0.155599996   0.727031946
0.475000024   0.488933325   0.727031946
0.475000024   0.822266638   0.060365245
0.475000024   0.822266638   0.393698543
0.475000024   0.822266638   0.727031946
0.475000143   0.266711056   0.893698573
0.475000143   0.60004437   0.893698573
0.475000143   0.933377683   0.227031901
0.475000143   0.933377683   0.56036526
0.475000143   0.933377683   0.893698573
0.600000024   0.322266668   0.727031946
0.600000024   0.655600011   0.727031946
0.600000024   0.988933325   0.060365245
0.600000024   0.988933325   0.393698543
0.600000024   0.988933325   0.727031946
0.600000143   0.100044385   0.893698573
0.600000143   0.433377713   0.893698573
0.600000143   0.766711056   0.227031901
0.600000143   0.766711056   0.56036526
0.600000143   0.766711056   0.893698573
0.725000024   0.155599996   0.727031946
0.725000024   0.488933325   0.727031946
0.725000024   0.822266638   0.060365245
0.725000024   0.822266638   0.393698543
0.725000024   0.822266638   0.727031946
0.725000143   0.266711056   0.893698573
0.725000143   0.60004437   0.893698573
0.725000143   0.933377683   0.227031901
0.725000143   0.933377683   0.56036526
0.725000143   0.933377683   0.893698573
0.850000024   0.322266668   0.727031946
0.850000024   0.655600011   0.727031946
0.850000024   0.988933325   0.060365245
0.850000024   0.988933325   0.393698543
0.850000024   0.988933325   0.727031946
0.850000143   0.100044385   0.893698573
0.850000143   0.433377713   0.893698573
0.850000143   0.766711056   0.227031901
0.850000143   0.766711056   0.56036526
0.850000143   0.766711056   0.893698573