This file is generated by VASPKIT code  
    1.000000000000000     
     9.7469999999999999    0.0000000000000000    0.0000000000000000
     0.0000000000000000   11.2548661479999996    0.0000000000000000
     0.0000000000000000    0.0000000000000000   10.4097960000000000
   Zn   O 
    47    48
Direct
  0.1668199607806034  0.0823322258652506  0.2515906356897996
  0.1672728149566664  0.0821935339185382  0.7497897456589945
  0.1668612338288518  0.5832327992814696  0.2505150092613114
  0.1659461008982772  0.5835588700330645  0.7507084024413222
  0.4998468392193983  0.0823322258652506  0.2515906356897996
  0.4993939850433352  0.0821935339185382  0.7497897456589945
  0.4998055661711497  0.5832327992814696  0.2505150092613114
  0.5007206991017242  0.5835588700330645  0.7507084024413222
  0.8333334000000008  0.0817415867041401  0.2502472149475222
  0.8333334000000008  0.0788687237029809  0.7380359156405643
  0.8333334000000008  0.5840188188152186  0.2499821535434205
  0.8333334000000008  0.5829739869026862  0.7495715132793758
 -0.0001031288568738  0.3342445708118157  0.2520628092546706
  0.0002091458499756  0.3328333348091020  0.7503332645338994
 -0.0031054274249889  0.8344409931787863  0.2452738773200665
 -0.0011125619818853  0.8329463773837005  0.7467613705970595
  0.3333334000000008  0.3327985146823355  0.2514760309074867
  0.3333334000000008  0.3333379589246489  0.7510975282861537
  0.3333334000000008  0.8322666859016279  0.2505192433224053
  0.3333334000000008  0.8332450337754653  0.7492043594209788
  0.6667699288568755  0.3342445708118157  0.2520628092546706
  0.6664576541500262  0.3328333348091020  0.7503332645338994
  0.6697722274249904  0.8344409931787863  0.2452738773200665
  0.6677793619818868  0.8329463773837005  0.7467613705970595
  0.0008459870070245  0.1676406923878299  0.4998981822644210
  0.0082575065432944  0.1691610242696385  0.0050145759708835
  0.0002556532399525  0.6667857344397478  0.4984717579878920
  0.9989045256719173  0.6667499761667151  0.0005409168336878
  0.3333332166666665  0.1671378058883328  0.5011807828338922
  0.3333332166666665  0.1668334975048117  0.0014496799187599
  0.3333332166666665  0.6671563942889256  0.5008077632582717
  0.3333332166666665  0.6663485107330011 -0.0003260889078613
  0.6658204463263084  0.1676406923878299  0.4998981822644210
  0.6584089267900384  0.1691610242696385  0.0050145759708835
  0.6664107800933808  0.6667857344397478  0.4984717579878920
  0.6677619076614156  0.6667499761667151  0.0005409168336878
  0.1671277843709663  0.4174203068135655  0.5013399543301230
  0.1672689685262078  0.4171000597530364  0.0014530575397016
  0.1664815603503195  0.9165137723946299  0.4986726274731721
  0.1651916802681197  0.9171751322628198  0.0020036098213696
  0.4995386489623665  0.4174203068135655  0.5013399543301230
  0.4993974648071250  0.4171000597530364  0.0014530575397016
  0.5001848729830133  0.9165137723946299  0.4986726274731721
  0.5014747530652133  0.9171751322628198  0.0020036098213696
  0.8333332166666665  0.4173425113809628  0.5012189009490934
  0.8333332166666665  0.4171778298573054  0.0013303182591970
  0.8333332166666665  0.9154694528232673  0.4891057224656992
  0.1670908325078499  0.0839208663648144  0.4414790650480667
  0.1674024883344853  0.0829793597257847  0.9408205853637645
  0.1675648443977147  0.5829987919127110  0.4407477233080612
  0.1669482063308389  0.5822708012281732  0.9411846864929241
  0.4995759674921517  0.0839208663648144  0.4414790650480667
  0.4992643116655164  0.0829793597257847  0.9408205853637645
  0.4991019556022870  0.5829987919127110  0.4407477233080612
  0.4997185936691626  0.5822708012281732  0.9411846864929241
  0.8333334000000008  0.0862310739414306  0.4438704593515931
  0.8333334000000008  0.1055046018724428  0.9305898887537399
  0.8333334000000008  0.5828459012694641  0.4402490931378240
  0.8333334000000008  0.5825896239033036  0.9405342388491615
  0.0003353329355597  0.3342749921218672  0.4421151552021116
 -0.0000792417906833  0.3329800755930920  0.9413856775909963
  0.0025660488954537  0.8320865809189739  0.4396289827095803
  0.0155474650435965  0.8262071084329790  0.9325804944674875
  0.3333334000000008  0.3333717507097495  0.4417734650958869
  0.3333334000000008  0.3327870363921421  0.9416403144210049
  0.3333334000000008  0.8331569202841784  0.4406115621049638
  0.3333334000000008  0.8341422004362602  0.9409023756750572
  0.6663314670644415  0.3342749921218672  0.4421151552021116
  0.6667460417906852  0.3329800755930920  0.9413856775909963
  0.6641007511045480  0.8320865809189739  0.4396289827095803
  0.6511193349564049  0.8262071084329790  0.9325804944674875
  0.0007011360931125  0.1677349176110295  0.1922080377086841
  0.0004156319705817  0.1660264015279775  0.6915059746015930
  0.0006631501424209  0.6656230169821938  0.1902116231513231
 -0.0003316346144873  0.6652067120764633  0.6890169147786340
  0.3333332166666665  0.1663678128733100  0.1913126650864453
  0.3333332166666665  0.1667552970663215  0.6918079172585736
  0.3333332166666665  0.6662534810139079  0.1899033644539962
  0.3333332166666665  0.6664110274254842  0.6916193700889426
  0.6659652972402206  0.1677349176110295  0.1922080377086841
  0.6662508013627508  0.1660264015279775  0.6915059746015930
  0.6660032831909121  0.6656230169821938  0.1902116231513231
  0.6669980679478206  0.6652067120764633  0.6890169147786340
  0.1669371631616975  0.4161144781141619  0.1913896615422729
  0.1666349267940783  0.4163181236989459  0.6918515965929639
  0.1679746262872716  0.9167898806066554  0.1906004320838453
  0.1671536559227177  0.9166654695242380  0.6894133429458403
  0.4997292701716354  0.4161144781141619  0.1913896615422729
  0.5000315065392544  0.4163181236989459  0.6918515965929639
  0.4986918070460612  0.9167898806066554  0.1906004320838453
  0.4995127774106153  0.9166654695242380  0.6894133429458403
  0.8333332166666665  0.4165228842473946  0.1912325488172950
  0.8333332166666665  0.4155372105118890  0.6918082148727323
  0.8333332166666665  0.9186427178674310  0.2057115480350959
  0.8333332166666665  0.9144389128802481  0.6844166167396842
 
  0.00000000E+00  0.00000000E+00  0.00000000E+00
  0.00000000E+00  0.00000000E+00  0.00000000E+00
  0.00000000E+00  0.00000000E+00  0.00000000E+00
  0.00000000E+00  0.00000000E+00  0.00000000E+00
  0.00000000E+00  0.00000000E+00  0.00000000E+00
  0.00000000E+00  0.00000000E+00  0.00000000E+00
  0.00000000E+00  0.00000000E+00  0.00000000E+00
  0.00000000E+00  0.00000000E+00  0.00000000E+00
  0.00000000E+00  0.00000000E+00  0.00000000E+00
  0.00000000E+00  0.00000000E+00  0.00000000E+00
  0.00000000E+00  0.00000000E+00  0.00000000E+00
  0.00000000E+00  0.00000000E+00  0.00000000E+00
  0.00000000E+00  0.00000000E+00  0.00000000E+00
  0.00000000E+00  0.00000000E+00  0.00000000E+00
  0.00000000E+00  0.00000000E+00  0.00000000E+00
  0.00000000E+00  0.00000000E+00  0.00000000E+00
  0.00000000E+00  0.00000000E+00  0.00000000E+00
  0.00000000E+00  0.00000000E+00  0.00000000E+00
  0.00000000E+00  0.00000000E+00  0.00000000E+00
  0.00000000E+00  0.00000000E+00  0.00000000E+00
  0.00000000E+00  0.00000000E+00  0.00000000E+00
  0.00000000E+00  0.00000000E+00  0.00000000E+00
  0.00000000E+00  0.00000000E+00  0.00000000E+00
  0.00000000E+00  0.00000000E+00  0.00000000E+00
  0.00000000E+00  0.00000000E+00  0.00000000E+00
  0.00000000E+00  0.00000000E+00  0.00000000E+00
  0.00000000E+00  0.00000000E+00  0.00000000E+00
  0.00000000E+00  0.00000000E+00  0.00000000E+00
  0.00000000E+00  0.00000000E+00  0.00000000E+00
  0.00000000E+00  0.00000000E+00  0.00000000E+00
  0.00000000E+00  0.00000000E+00  0.00000000E+00
  0.00000000E+00  0.00000000E+00  0.00000000E+00
  0.00000000E+00  0.00000000E+00  0.00000000E+00
  0.00000000E+00  0.00000000E+00  0.00000000E+00
  0.00000000E+00  0.00000000E+00  0.00000000E+00
  0.00000000E+00  0.00000000E+00  0.00000000E+00
  0.00000000E+00  0.00000000E+00  0.00000000E+00
  0.00000000E+00  0.00000000E+00  0.00000000E+00
  0.00000000E+00  0.00000000E+00  0.00000000E+00
  0.00000000E+00  0.00000000E+00  0.00000000E+00
  0.00000000E+00  0.00000000E+00  0.00000000E+00
  0.00000000E+00  0.00000000E+00  0.00000000E+00
  0.00000000E+00  0.00000000E+00  0.00000000E+00
  0.00000000E+00  0.00000000E+00  0.00000000E+00
  0.00000000E+00  0.00000000E+00  0.00000000E+00
  0.00000000E+00  0.00000000E+00  0.00000000E+00
  0.00000000E+00  0.00000000E+00  0.00000000E+00
  0.00000000E+00  0.00000000E+00  0.00000000E+00
  0.00000000E+00  0.00000000E+00  0.00000000E+00
  0.00000000E+00  0.00000000E+00  0.00000000E+00
  0.00000000E+00  0.00000000E+00  0.00000000E+00
  0.00000000E+00  0.00000000E+00  0.00000000E+00
  0.00000000E+00  0.00000000E+00  0.00000000E+00
  0.00000000E+00  0.00000000E+00  0.00000000E+00
  0.00000000E+00  0.00000000E+00  0.00000000E+00
  0.00000000E+00  0.00000000E+00  0.00000000E+00
  0.00000000E+00  0.00000000E+00  0.00000000E+00
  0.00000000E+00  0.00000000E+00  0.00000000E+00
  0.00000000E+00  0.00000000E+00  0.00000000E+00
  0.00000000E+00  0.00000000E+00  0.00000000E+00
  0.00000000E+00  0.00000000E+00  0.00000000E+00
  0.00000000E+00  0.00000000E+00  0.00000000E+00
  0.00000000E+00  0.00000000E+00  0.00000000E+00
  0.00000000E+00  0.00000000E+00  0.00000000E+00
  0.00000000E+00  0.00000000E+00  0.00000000E+00
  0.00000000E+00  0.00000000E+00  0.00000000E+00
  0.00000000E+00  0.00000000E+00  0.00000000E+00
  0.00000000E+00  0.00000000E+00  0.00000000E+00
  0.00000000E+00  0.00000000E+00  0.00000000E+00
  0.00000000E+00  0.00000000E+00  0.00000000E+00
  0.00000000E+00  0.00000000E+00  0.00000000E+00
  0.00000000E+00  0.00000000E+00  0.00000000E+00
  0.00000000E+00  0.00000000E+00  0.00000000E+00
  0.00000000E+00  0.00000000E+00  0.00000000E+00
  0.00000000E+00  0.00000000E+00  0.00000000E+00
  0.00000000E+00  0.00000000E+00  0.00000000E+00
  0.00000000E+00  0.00000000E+00  0.00000000E+00
  0.00000000E+00  0.00000000E+00  0.00000000E+00
  0.00000000E+00  0.00000000E+00  0.00000000E+00
  0.00000000E+00  0.00000000E+00  0.00000000E+00
  0.00000000E+00  0.00000000E+00  0.00000000E+00
  0.00000000E+00  0.00000000E+00  0.00000000E+00
  0.00000000E+00  0.00000000E+00  0.00000000E+00
  0.00000000E+00  0.00000000E+00  0.00000000E+00
  0.00000000E+00  0.00000000E+00  0.00000000E+00
  0.00000000E+00  0.00000000E+00  0.00000000E+00
  0.00000000E+00  0.00000000E+00  0.00000000E+00
  0.00000000E+00  0.00000000E+00  0.00000000E+00
  0.00000000E+00  0.00000000E+00  0.00000000E+00
  0.00000000E+00  0.00000000E+00  0.00000000E+00
  0.00000000E+00  0.00000000E+00  0.00000000E+00
  0.00000000E+00  0.00000000E+00  0.00000000E+00
  0.00000000E+00  0.00000000E+00  0.00000000E+00
  0.00000000E+00  0.00000000E+00  0.00000000E+00
  0.00000000E+00  0.00000000E+00  0.00000000E+00
