This file is generated by VASPKIT code  
    1.000000000000000     
    12.9960000000000004    0.0000000000000000    0.0000000000000000
     0.0000000000000000   11.2548661479999996    0.0000000000000000
     0.0000000000000000    0.0000000000000000   10.4097960000000000
   Zn   O 
    63    64
Direct
  0.1263236784302927  0.0834489370539865  0.2515428748886729
  0.1258234701623747  0.0829103629065948  0.7491709960461482
  0.1260202003432204  0.5822499016198298  0.2501110346062627
  0.1248071134868112  0.5832398361620498  0.7495289601263547
  0.3750000499999970  0.0831469820427950  0.2500387760148642
  0.3750000499999970  0.0830320950502169  0.7492240498229784
  0.3750000499999970  0.5831190246976288  0.2495344341529957
  0.3750000499999970  0.5830072469780530  0.7493343477800328
  0.6236764215697013  0.0834489370539865  0.2515428748886729
  0.6241766298376190  0.0829103629065948  0.7491709960461482
  0.6239798996567736  0.5822499016198298  0.2501110346062627
  0.6251929865131832  0.5832398361620498  0.7495289601263547
  0.8750000499999970  0.0907103820015761  0.2509501059258638
  0.8750000499999970  0.0808236441245037  0.7446519219190055
  0.8750000499999970  0.5819645204502584  0.2512903612869228
  0.8750000499999970  0.5826508792179960  0.7493957429041704
  0.0007628241045312  0.3345432560364293  0.2510116432678962
  0.0000974928563633  0.3328432216711981  0.7492405026557609
  0.0057113812597668  0.8289982712307429  0.2498252882797601
  0.9985009956852603  0.8337678283391526  0.7500599687397639
  0.2504530362284303  0.3332994805469088  0.2499544162278050
  0.2502075148284987  0.3333564551334362  0.7493159147562984
  0.2511778641416769  0.8328554087632408  0.2503995566724330
  0.2498299848210035  0.8328454252517291  0.7492255747393669
  0.4995470637715638  0.3332994805469088  0.2499544162278050
  0.4997925851714952  0.3333564551334362  0.7493159147562984
  0.4988222358583172  0.8328554087632408  0.2503995566724330
  0.5001701151789908  0.8328454252517291  0.7492255747393669
  0.7492372758954629  0.3345432560364293  0.2510116432678962
  0.7499026071436308  0.3328432216711981  0.7492405026557609
  0.7442887187402274  0.8289982712307429  0.2498252882797601
  0.7514991043147338  0.8337678283391526  0.7500599687397639
  0.0007622937468253  0.1673525714547213  0.5001356384898717
  0.0056359249763275  0.1683499483495662  0.0024863793999209
  0.0001783048934045  0.6662629854682274  0.5004332665048933
  0.9986070480901630  0.6646131084678364  0.0009199726864970
  0.2504735137120854  0.1673636856409594  0.4998602375342794
  0.2514238486221110  0.1675981053103623 -0.0001587435394916
  0.2501818259079845  0.6667361357469037  0.4999413887052627
  0.2498687922482611  0.6665584581662061 -0.0004111530945604
  0.4995263112879178  0.1673636856409594  0.4998602375342794
  0.4985759763778923  0.1675981053103623 -0.0001587435394916
  0.4998179990920188  0.6667361357469037  0.4999413887052627
  0.5001310327517424  0.6665584581662061 -0.0004111530945604
  0.7492375312531782  0.1673525714547213  0.5001356384898717
  0.7443639000236757  0.1683499483495662  0.0024863793999209
  0.7498215201065989  0.6662629854682274  0.5004332665048933
  0.7513927769098403  0.6646131084678364  0.0009199726864970
  0.1253722005958209  0.4171882886415734  0.5002584785666030
  0.1256245301704431  0.4169912320290757 -0.0005009641356404
  0.1254705413253206  0.9170032282197228  0.5004990782573497
  0.1260456555882060  0.9184031650032018  0.0010753157701556
  0.3749999125000016  0.4171878601645304  0.4994660437677504
  0.3749999125000016  0.4173542130638062 -0.0004568208361661
  0.3749999125000016  0.9170261421610696  0.5001321164677149
  0.3749999125000016  0.9169402344137012 -0.0005914865455347
  0.6246276244041825  0.4171882886415734  0.5002584785666030
  0.6243752948295601  0.4169912320290757 -0.0005009641356404
  0.6245292836746827  0.9170032282197228  0.5004990782573497
  0.6239541694117970  0.9184031650032018  0.0010753157701556
  0.8749999125000016  0.4168779096804265  0.5004876468216982
  0.8749999125000016  0.4157731293890010  0.0005026293190534
  0.8749999125000016  0.9161568961026351  0.4971745727784183
  0.1249957061475922  0.0833851942911792  0.4412983385901060
  0.1261256593034913  0.0834044350673969  0.9401886195010181
  0.1248775843165820  0.5836542564055048  0.4403550172306957
  0.1241560037671839  0.5835987357627462  0.9404871634018259
  0.3750000499999970  0.0833928249626097  0.4403515035489385
  0.3750000499999970  0.0830168400952798  0.9398002169593275
  0.3750000499999970  0.5837750474542630  0.4399678816376437
  0.3750000499999970  0.5840516746031466  0.9400850014061106
  0.6250043938524018  0.0833851942911792  0.4412983385901060
  0.6238744406965029  0.0834044350673969  0.9401886195010181
  0.6251225156834120  0.5836542564055048  0.4403550172306957
  0.6258440962328100  0.5835987357627462  0.9404871634018259
  0.8750000499999970  0.0836862443664693  0.4400032725508183
  0.8750000499999970  0.0998452014109924  0.9351917844422055
  0.8750000499999970  0.5835245800847579  0.4411508909194067
  0.8750000499999970  0.5817324187173750  0.9403497047639008
 -0.0000032221366817  0.3334355644977035  0.4409905761013116
 -0.0000265644963048  0.3325062731328832  0.9404522652250600
  0.0002892875094364  0.8332189023125185  0.4391190973067020
  0.0075183078393530  0.8282158249429952  0.9380215332886715
  0.2498838201378779  0.3336411505171620  0.4402970302333322
  0.2500586445746997  0.3336877496523940  0.9399894676815529
  0.2498671523496258  0.8335541554260573  0.4406345027999213
  0.2495408634679097  0.8335903947648099  0.9403814991023102
  0.5001162798621162  0.3336411505171620  0.4402970302333322
  0.4999414554252943  0.3336877496523940  0.9399894676815529
  0.5001329476503684  0.8335541554260573  0.4406345027999213
  0.5004592365320842  0.8335903947648099  0.9403814991023102
  0.7500033221366755  0.3334355644977035  0.4409905761013116
  0.7500266644962987  0.3325062731328832  0.9404522652250600
  0.7497108124905575  0.8332189023125185  0.4391190973067020
  0.7424817921606411  0.8282158249429952  0.9380215332886715
  0.0007926151492335  0.1668076147480347  0.1909622355014035
  0.9997312002941097  0.1655435254466457  0.6908542446600537
 -0.0001305924858406  0.6650619537336721  0.1905205937581128
  0.9995557442214319  0.6672959042766048  0.6907410392979648
  0.2500990154027780  0.1667040066067694  0.1901888857541346
  0.2499949903494543  0.1666185462994538  0.6903425776503208
  0.2498815921955802  0.6668577594609666  0.1900262512057124
  0.2497547333819423  0.6664584070220341  0.6905436650051001
  0.4999008095972252  0.1667040066067694  0.1901888857541346
  0.5000048346505490  0.1666185462994538  0.6903425776503208
  0.5001182328044234  0.6668577594609666  0.1900262512057124
  0.5002450916180611  0.6664584070220341  0.6905436650051001
  0.7492072098507696  0.1668076147480347  0.1909622355014035
  0.7502686247058936  0.1655435254466457  0.6908542446600537
  0.7501304174858439  0.6650619537336721  0.1905205937581128
  0.7504440807785714  0.6672959042766048  0.6907410392979648
  0.1252120281863002  0.4162189179649051  0.1897411356084142
  0.1246517093029318  0.4165360345578983  0.6907803656411898
  0.1257401959916670  0.9171435422737078  0.1905485151110651
  0.1239990359793514  0.9161007532521105  0.6908505619739438
  0.3749999125000016  0.4167129276885839  0.1898665037314715
  0.3749999125000016  0.4166195754052997  0.6899856261056306
  0.3749999125000016  0.9168375724971713  0.1896927421573980
  0.3749999125000016  0.9161682470540091  0.6907337791883121
  0.6247877968137031  0.4162189179649051  0.1897411356084142
  0.6253481156970716  0.4165360345578983  0.6907803656411898
  0.6242596290083363  0.9171435422737078  0.1905485151110651
  0.6260007890206520  0.9161007532521105  0.6908505619739438
  0.8749999125000016  0.4157208596904714  0.1906970734538400
  0.8749999125000016  0.4159856150437197  0.6909421599736010
  0.8749999125000016  0.9164888255903190  0.2096869304786549
  0.8749999125000016  0.9159611115379769  0.6879030535398076
 
  0.00000000E+00  0.00000000E+00  0.00000000E+00
  0.00000000E+00  0.00000000E+00  0.00000000E+00
  0.00000000E+00  0.00000000E+00  0.00000000E+00
  0.00000000E+00  0.00000000E+00  0.00000000E+00
  0.00000000E+00  0.00000000E+00  0.00000000E+00
  0.00000000E+00  0.00000000E+00  0.00000000E+00
  0.00000000E+00  0.00000000E+00  0.00000000E+00
  0.00000000E+00  0.00000000E+00  0.00000000E+00
  0.00000000E+00  0.00000000E+00  0.00000000E+00
  0.00000000E+00  0.00000000E+00  0.00000000E+00
  0.00000000E+00  0.00000000E+00  0.00000000E+00
  0.00000000E+00  0.00000000E+00  0.00000000E+00
  0.00000000E+00  0.00000000E+00  0.00000000E+00
  0.00000000E+00  0.00000000E+00  0.00000000E+00
  0.00000000E+00  0.00000000E+00  0.00000000E+00
  0.00000000E+00  0.00000000E+00  0.00000000E+00
  0.00000000E+00  0.00000000E+00  0.00000000E+00
  0.00000000E+00  0.00000000E+00  0.00000000E+00
  0.00000000E+00  0.00000000E+00  0.00000000E+00
  0.00000000E+00  0.00000000E+00  0.00000000E+00
  0.00000000E+00  0.00000000E+00  0.00000000E+00
  0.00000000E+00  0.00000000E+00  0.00000000E+00
  0.00000000E+00  0.00000000E+00  0.00000000E+00
  0.00000000E+00  0.00000000E+00  0.00000000E+00
  0.00000000E+00  0.00000000E+00  0.00000000E+00
  0.00000000E+00  0.00000000E+00  0.00000000E+00
  0.00000000E+00  0.00000000E+00  0.00000000E+00
  0.00000000E+00  0.00000000E+00  0.00000000E+00
  0.00000000E+00  0.00000000E+00  0.00000000E+00
  0.00000000E+00  0.00000000E+00  0.00000000E+00
  0.00000000E+00  0.00000000E+00  0.00000000E+00
  0.00000000E+00  0.00000000E+00  0.00000000E+00
  0.00000000E+00  0.00000000E+00  0.00000000E+00
  0.00000000E+00  0.00000000E+00  0.00000000E+00
  0.00000000E+00  0.00000000E+00  0.00000000E+00
  0.00000000E+00  0.00000000E+00  0.00000000E+00
  0.00000000E+00  0.00000000E+00  0.00000000E+00
  0.00000000E+00  0.00000000E+00  0.00000000E+00
  0.00000000E+00  0.00000000E+00  0.00000000E+00
  0.00000000E+00  0.00000000E+00  0.00000000E+00
  0.00000000E+00  0.00000000E+00  0.00000000E+00
  0.00000000E+00  0.00000000E+00  0.00000000E+00
  0.00000000E+00  0.00000000E+00  0.00000000E+00
  0.00000000E+00  0.00000000E+00  0.00000000E+00
  0.00000000E+00  0.00000000E+00  0.00000000E+00
  0.00000000E+00  0.00000000E+00  0.00000000E+00
  0.00000000E+00  0.00000000E+00  0.00000000E+00
  0.00000000E+00  0.00000000E+00  0.00000000E+00
  0.00000000E+00  0.00000000E+00  0.00000000E+00
  0.00000000E+00  0.00000000E+00  0.00000000E+00
  0.00000000E+00  0.00000000E+00  0.00000000E+00
  0.00000000E+00  0.00000000E+00  0.00000000E+00
  0.00000000E+00  0.00000000E+00  0.00000000E+00
  0.00000000E+00  0.00000000E+00  0.00000000E+00
  0.00000000E+00  0.00000000E+00  0.00000000E+00
  0.00000000E+00  0.00000000E+00  0.00000000E+00
  0.00000000E+00  0.00000000E+00  0.00000000E+00
  0.00000000E+00  0.00000000E+00  0.00000000E+00
  0.00000000E+00  0.00000000E+00  0.00000000E+00
  0.00000000E+00  0.00000000E+00  0.00000000E+00
  0.00000000E+00  0.00000000E+00  0.00000000E+00
  0.00000000E+00  0.00000000E+00  0.00000000E+00
  0.00000000E+00  0.00000000E+00  0.00000000E+00
  0.00000000E+00  0.00000000E+00  0.00000000E+00
  0.00000000E+00  0.00000000E+00  0.00000000E+00
  0.00000000E+00  0.00000000E+00  0.00000000E+00
  0.00000000E+00  0.00000000E+00  0.00000000E+00
  0.00000000E+00  0.00000000E+00  0.00000000E+00
  0.00000000E+00  0.00000000E+00  0.00000000E+00
  0.00000000E+00  0.00000000E+00  0.00000000E+00
  0.00000000E+00  0.00000000E+00  0.00000000E+00
  0.00000000E+00  0.00000000E+00  0.00000000E+00
  0.00000000E+00  0.00000000E+00  0.00000000E+00
  0.00000000E+00  0.00000000E+00  0.00000000E+00
  0.00000000E+00  0.00000000E+00  0.00000000E+00
  0.00000000E+00  0.00000000E+00  0.00000000E+00
  0.00000000E+00  0.00000000E+00  0.00000000E+00
  0.00000000E+00  0.00000000E+00  0.00000000E+00
  0.00000000E+00  0.00000000E+00  0.00000000E+00
  0.00000000E+00  0.00000000E+00  0.00000000E+00
  0.00000000E+00  0.00000000E+00  0.00000000E+00
  0.00000000E+00  0.00000000E+00  0.00000000E+00
  0.00000000E+00  0.00000000E+00  0.00000000E+00
  0.00000000E+00  0.00000000E+00  0.00000000E+00
  0.00000000E+00  0.00000000E+00  0.00000000E+00
  0.00000000E+00  0.00000000E+00  0.00000000E+00
  0.00000000E+00  0.00000000E+00  0.00000000E+00
  0.00000000E+00  0.00000000E+00  0.00000000E+00
  0.00000000E+00  0.00000000E+00  0.00000000E+00
  0.00000000E+00  0.00000000E+00  0.00000000E+00
  0.00000000E+00  0.00000000E+00  0.00000000E+00
  0.00000000E+00  0.00000000E+00  0.00000000E+00
  0.00000000E+00  0.00000000E+00  0.00000000E+00
  0.00000000E+00  0.00000000E+00  0.00000000E+00
  0.00000000E+00  0.00000000E+00  0.00000000E+00
  0.00000000E+00  0.00000000E+00  0.00000000E+00
  0.00000000E+00  0.00000000E+00  0.00000000E+00
  0.00000000E+00  0.00000000E+00  0.00000000E+00
  0.00000000E+00  0.00000000E+00  0.00000000E+00
  0.00000000E+00  0.00000000E+00  0.00000000E+00
  0.00000000E+00  0.00000000E+00  0.00000000E+00
  0.00000000E+00  0.00000000E+00  0.00000000E+00
  0.00000000E+00  0.00000000E+00  0.00000000E+00
  0.00000000E+00  0.00000000E+00  0.00000000E+00
  0.00000000E+00  0.00000000E+00  0.00000000E+00
  0.00000000E+00  0.00000000E+00  0.00000000E+00
  0.00000000E+00  0.00000000E+00  0.00000000E+00
  0.00000000E+00  0.00000000E+00  0.00000000E+00
  0.00000000E+00  0.00000000E+00  0.00000000E+00
  0.00000000E+00  0.00000000E+00  0.00000000E+00
  0.00000000E+00  0.00000000E+00  0.00000000E+00
  0.00000000E+00  0.00000000E+00  0.00000000E+00
  0.00000000E+00  0.00000000E+00  0.00000000E+00
  0.00000000E+00  0.00000000E+00  0.00000000E+00
  0.00000000E+00  0.00000000E+00  0.00000000E+00
  0.00000000E+00  0.00000000E+00  0.00000000E+00
  0.00000000E+00  0.00000000E+00  0.00000000E+00
  0.00000000E+00  0.00000000E+00  0.00000000E+00
  0.00000000E+00  0.00000000E+00  0.00000000E+00
  0.00000000E+00  0.00000000E+00  0.00000000E+00
  0.00000000E+00  0.00000000E+00  0.00000000E+00
  0.00000000E+00  0.00000000E+00  0.00000000E+00
  0.00000000E+00  0.00000000E+00  0.00000000E+00
  0.00000000E+00  0.00000000E+00  0.00000000E+00
  0.00000000E+00  0.00000000E+00  0.00000000E+00
  0.00000000E+00  0.00000000E+00  0.00000000E+00
  0.00000000E+00  0.00000000E+00  0.00000000E+00
