This file is generated by VASPKIT code  
    1.000000000000000     
     9.7469999999999999    0.0000000000000000    0.0000000000000000
     0.0000000000000000   11.2548661479999996    0.0000000000000000
     0.0000000000000000    0.0000000000000000   10.4097960000000000
   Zn   O 
    47    48
Direct
  0.1667054729538611  0.0816451633864846  0.2511360292099703
  0.1672236954813845  0.0810479445412541  0.7503083498699734
  0.1667599688431142  0.5834920084470088  0.2492207680128578
  0.1652775126511384  0.5848789371610399  0.7518812397915891
  0.4999613270461404  0.0816451633864846  0.2511360292099703
  0.4994431045186171  0.0810479445412541  0.7503083498699734
  0.4999068311568874  0.5834920084470088  0.2492207680128578
  0.5013892873488629  0.5848789371610399  0.7518812397915891
  0.8333334000000008  0.0826329344722415  0.2509423773110123
  0.8333334000000008  0.0771564696508540  0.7389098448432745
  0.8333334000000008  0.5844320250955349  0.2485107922806519
  0.8333334000000008  0.5836550702584012  0.7506057516428819
  0.0000745289987903  0.3341127688406570  0.2523044797090998
  0.0001497886192666  0.3328224378881766  0.7511952396191093
  0.9981412840324474  0.8339695515943047  0.2427204446761224
  0.9973716797218497  0.8334130462559663  0.7516238680764726
  0.3333334000000008  0.3327657925442590  0.2519784408505467
  0.3333334000000008  0.3334184020903303  0.7520970997938089
  0.3333334000000008  0.8324193999878243  0.2483824017559094
  0.3333334000000008  0.8338018188870241  0.7516789808233598
  0.6665922710012113  0.3341127688406570  0.2523044797090998
  0.6665170113807420  0.3328224378881766  0.7511952396191093
  0.6685255159675542  0.8339695515943047  0.2427204446761224
  0.6692951202781519  0.8334130462559663  0.7516238680764726
  0.0011767228843251  0.1673468137685346  0.5009790380084828
  0.0077039070441889  0.1673270579095614  0.0045067595654040
  0.0001516456269669  0.6670778141646554  0.4984316856406740
  0.9975592685155579  0.6719547744270783 -0.0020269305732359
  0.3333332166666665  0.1665493109115700  0.5017828639545885
  0.3333332166666665  0.1660135152428350  0.0019276740526760
  0.3333332166666665  0.6674268513494557  0.5006493269691572
  0.3333332166666665  0.6680662541574568  0.9977299221176232
  0.6654897104490080  0.1673468137685346  0.5009790380084828
  0.6589625262891441  0.1673270579095614  0.0045067595654040
  0.6665147877063662  0.6670778141646554  0.4984316856406740
  0.6691071648177751  0.6719547744270783 -0.0020269305732359
  0.1672213515796432  0.4177768291091353  0.5020082535978367
  0.1669252407409752  0.4174794484836172  0.0013736863460735
  0.1661997532640561  0.9155743005473196  0.4988210666461452
  0.1627621281087371  0.9145551034070206 -0.0008767373937772
  0.4994450817536898  0.4177768291091353  0.5020082535978367
  0.4997411925923578  0.4174794484836172  0.0013736863460735
  0.5004666800692769  0.9155743005473196  0.4988210666461452
  0.5039043052245959  0.9145551034070206 -0.0008767373937772
  0.8333332166666665  0.4176044646140620  0.5013394759046346
  0.8333332166666665  0.4173325159292555  0.0015668265532789
  0.8333332166666665  0.9149398431508604  0.4866203378421189
  0.1670679538422959  0.0839344149730293  0.4413308554803640
  0.1678768391777628  0.0837034883074821  0.9408276172801305
  0.1676755180758248  0.5826570961470297  0.4400462147537602
  0.1666548562229612  0.5815016359526255  0.9414961971879882
  0.4995988461577056  0.0839344149730293  0.4413308554803640
  0.4987899608222387  0.0837034883074821  0.9408276172801305
  0.4989912819241769  0.5826570961470297  0.4400462147537602
  0.5000119437770404  0.5815016359526255  0.9414961971879882
  0.8333334000000008  0.0875590356439462  0.4444150526823830
  0.8333334000000008  0.1044014026479760  0.9304550107401328
  0.8333334000000008  0.5824845452579980  0.4393132711290076
  0.8333334000000008  0.5811997050962201  0.9406331075023043
  0.0005990434039636  0.3342476680726887  0.4425269188657422
 -0.0002739600071145  0.3320958398064289  0.9421519364073870
  0.0033208216311470  0.8313429815112711  0.4381095786998275
  0.0109046540389167  0.8289428054693838  0.9337272045356921
  0.3333334000000008  0.3332290584968468  0.4424620168734357
  0.3333334000000008  0.3325932589072118  0.9424991984274270
  0.3333334000000008  0.8328449936584892  0.4391427392938696
  0.3333334000000008  0.8342792196454143  0.9409302104598926
  0.6660677565960305  0.3342476680726887  0.4425269188657422
  0.6669407600071164  0.3320958398064289  0.9421519364073870
  0.6633459783688547  0.8313429815112711  0.4381095786998275
  0.6557621459610851  0.8289428054693838  0.9337272045356921
  0.0007124743759703  0.1679086999257940  0.1921797324431175
  0.0004809836656569  0.1662178828703345  0.6921005238229306
  0.0006598642930547  0.6648230814712820  0.1894797015479142
  0.9993344260868817  0.6648721663063212  0.6880406472539848
  0.3333332166666665  0.1666254596837762  0.1921662273371422
  0.3333332166666665  0.1670797251749840  0.6920475982676940
  0.3333332166666665  0.6657433805709646  0.1893301961657463
  0.3333332166666665  0.6662393622172729  0.6910695934790172
  0.6659539589573630  0.1679086999257940  0.1921797324431175
  0.6661854496676758  0.1662178828703345  0.6921005238229306
  0.6660065690402783  0.6648230814712820  0.1894797015479142
  0.6673320072464513  0.6648721663063212  0.6880406472539848
  0.1669999053351535  0.4156569405096046  0.1917484774739584
  0.1666137506452646  0.4165310128338500  0.6924308050833125
  0.1682526798786404  0.9171667072549059  0.1902855386561258
  0.1673291712548821  0.9167560490715772  0.6882057872771776
  0.4996665279981796  0.4156569405096046  0.1917484774739584
  0.5000526826880684  0.4165310128338500  0.6924308050833125
  0.4984137534546924  0.9171667072549059  0.1902855386561258
  0.4993372620784510  0.9167560490715772  0.6882057872771776
  0.8333332166666665  0.4159236231713091  0.1917963749252879
  0.8333332166666665  0.4153962808534998  0.6918515138959833
  0.8333332166666665  0.9188991741108171  0.2139952392540249
  0.8333332166666665  0.9149518906907215  0.6806047597266665
 
  0.00000000E+00  0.00000000E+00  0.00000000E+00
  0.00000000E+00  0.00000000E+00  0.00000000E+00
  0.00000000E+00  0.00000000E+00  0.00000000E+00
  0.00000000E+00  0.00000000E+00  0.00000000E+00
  0.00000000E+00  0.00000000E+00  0.00000000E+00
  0.00000000E+00  0.00000000E+00  0.00000000E+00
  0.00000000E+00  0.00000000E+00  0.00000000E+00
  0.00000000E+00  0.00000000E+00  0.00000000E+00
  0.00000000E+00  0.00000000E+00  0.00000000E+00
  0.00000000E+00  0.00000000E+00  0.00000000E+00
  0.00000000E+00  0.00000000E+00  0.00000000E+00
  0.00000000E+00  0.00000000E+00  0.00000000E+00
  0.00000000E+00  0.00000000E+00  0.00000000E+00
  0.00000000E+00  0.00000000E+00  0.00000000E+00
  0.00000000E+00  0.00000000E+00  0.00000000E+00
  0.00000000E+00  0.00000000E+00  0.00000000E+00
  0.00000000E+00  0.00000000E+00  0.00000000E+00
  0.00000000E+00  0.00000000E+00  0.00000000E+00
  0.00000000E+00  0.00000000E+00  0.00000000E+00
  0.00000000E+00  0.00000000E+00  0.00000000E+00
  0.00000000E+00  0.00000000E+00  0.00000000E+00
  0.00000000E+00  0.00000000E+00  0.00000000E+00
  0.00000000E+00  0.00000000E+00  0.00000000E+00
  0.00000000E+00  0.00000000E+00  0.00000000E+00
  0.00000000E+00  0.00000000E+00  0.00000000E+00
  0.00000000E+00  0.00000000E+00  0.00000000E+00
  0.00000000E+00  0.00000000E+00  0.00000000E+00
  0.00000000E+00  0.00000000E+00  0.00000000E+00
  0.00000000E+00  0.00000000E+00  0.00000000E+00
  0.00000000E+00  0.00000000E+00  0.00000000E+00
  0.00000000E+00  0.00000000E+00  0.00000000E+00
  0.00000000E+00  0.00000000E+00  0.00000000E+00
  0.00000000E+00  0.00000000E+00  0.00000000E+00
  0.00000000E+00  0.00000000E+00  0.00000000E+00
  0.00000000E+00  0.00000000E+00  0.00000000E+00
  0.00000000E+00  0.00000000E+00  0.00000000E+00
  0.00000000E+00  0.00000000E+00  0.00000000E+00
  0.00000000E+00  0.00000000E+00  0.00000000E+00
  0.00000000E+00  0.00000000E+00  0.00000000E+00
  0.00000000E+00  0.00000000E+00  0.00000000E+00
  0.00000000E+00  0.00000000E+00  0.00000000E+00
  0.00000000E+00  0.00000000E+00  0.00000000E+00
  0.00000000E+00  0.00000000E+00  0.00000000E+00
  0.00000000E+00  0.00000000E+00  0.00000000E+00
  0.00000000E+00  0.00000000E+00  0.00000000E+00
  0.00000000E+00  0.00000000E+00  0.00000000E+00
  0.00000000E+00  0.00000000E+00  0.00000000E+00
  0.00000000E+00  0.00000000E+00  0.00000000E+00
  0.00000000E+00  0.00000000E+00  0.00000000E+00
  0.00000000E+00  0.00000000E+00  0.00000000E+00
  0.00000000E+00  0.00000000E+00  0.00000000E+00
  0.00000000E+00  0.00000000E+00  0.00000000E+00
  0.00000000E+00  0.00000000E+00  0.00000000E+00
  0.00000000E+00  0.00000000E+00  0.00000000E+00
  0.00000000E+00  0.00000000E+00  0.00000000E+00
  0.00000000E+00  0.00000000E+00  0.00000000E+00
  0.00000000E+00  0.00000000E+00  0.00000000E+00
  0.00000000E+00  0.00000000E+00  0.00000000E+00
  0.00000000E+00  0.00000000E+00  0.00000000E+00
  0.00000000E+00  0.00000000E+00  0.00000000E+00
  0.00000000E+00  0.00000000E+00  0.00000000E+00
  0.00000000E+00  0.00000000E+00  0.00000000E+00
  0.00000000E+00  0.00000000E+00  0.00000000E+00
  0.00000000E+00  0.00000000E+00  0.00000000E+00
  0.00000000E+00  0.00000000E+00  0.00000000E+00
  0.00000000E+00  0.00000000E+00  0.00000000E+00
  0.00000000E+00  0.00000000E+00  0.00000000E+00
  0.00000000E+00  0.00000000E+00  0.00000000E+00
  0.00000000E+00  0.00000000E+00  0.00000000E+00
  0.00000000E+00  0.00000000E+00  0.00000000E+00
  0.00000000E+00  0.00000000E+00  0.00000000E+00
  0.00000000E+00  0.00000000E+00  0.00000000E+00
  0.00000000E+00  0.00000000E+00  0.00000000E+00
  0.00000000E+00  0.00000000E+00  0.00000000E+00
  0.00000000E+00  0.00000000E+00  0.00000000E+00
  0.00000000E+00  0.00000000E+00  0.00000000E+00
  0.00000000E+00  0.00000000E+00  0.00000000E+00
  0.00000000E+00  0.00000000E+00  0.00000000E+00
  0.00000000E+00  0.00000000E+00  0.00000000E+00
  0.00000000E+00  0.00000000E+00  0.00000000E+00
  0.00000000E+00  0.00000000E+00  0.00000000E+00
  0.00000000E+00  0.00000000E+00  0.00000000E+00
  0.00000000E+00  0.00000000E+00  0.00000000E+00
  0.00000000E+00  0.00000000E+00  0.00000000E+00
  0.00000000E+00  0.00000000E+00  0.00000000E+00
  0.00000000E+00  0.00000000E+00  0.00000000E+00
  0.00000000E+00  0.00000000E+00  0.00000000E+00
  0.00000000E+00  0.00000000E+00  0.00000000E+00
  0.00000000E+00  0.00000000E+00  0.00000000E+00
  0.00000000E+00  0.00000000E+00  0.00000000E+00
  0.00000000E+00  0.00000000E+00  0.00000000E+00
  0.00000000E+00  0.00000000E+00  0.00000000E+00
  0.00000000E+00  0.00000000E+00  0.00000000E+00
  0.00000000E+00  0.00000000E+00  0.00000000E+00
  0.00000000E+00  0.00000000E+00  0.00000000E+00
