This file is generated by VASPKIT code  
       1.0 
    12.9960000000000004  0.0000000000000000  0.0000000000000000 
     0.0000000000000000 16.8822992220000003  0.0000000000000000 
     0.0000000000000000  0.0000000000000000 15.6146940000000001 
  Zn    O
  144   143
Direct
0.1   0.1   0.7666666666666667
0.1   0.4333333333333334   0.7666666666666667
0.1   0.7666666666666667   0.4333333333333333
0.1   0.7666666666666667   0.7666666666666667
0.1   0.7666666666666667   0.1
0.1000001375   0.2111110500000001   0.9333333333333333
0.1000001375   0.5444443833333333   0.9333333333333333
0.1000001375   0.8777777166666666   0.2666666666666666
0.1000001375   0.8777777166666666   0.6000000000000001
0.1000001375   0.8777777166666666   0.9333333333333333
0.225   0.2666666666666667   0.7666666666666667
0.225   0.6   0.7666666666666667
0.225   0.9333333333333333   0.4333333333333333
0.225   0.9333333333333333   0.7666666666666667
0.225   0.9333333333333333   0.1
0.2250001375   0.0444443833333334   0.9333333333333333
0.2250001375   0.3777777166666668   0.9333333333333333
0.2250001375   0.71111105   0.2666666666666666
0.2250001375   0.71111105   0.6000000000000001
0.2250001375   0.71111105   0.9333333333333333
0.35   0.1   0.7666666666666667
0.35   0.4333333333333334   0.7666666666666667
0.35   0.7666666666666667   0.4333333333333333
0.35   0.7666666666666667   0.7666666666666667
0.35   0.7666666666666667   0.1
0.3500001375   0.2111110500000001   0.9333333333333333
0.3500001375   0.5444443833333333   0.9333333333333333
0.3500001375   0.8777777166666666   0.2666666666666666
0.3500001375   0.8777777166666666   0.6000000000000001
0.3500001375   0.8777777166666666   0.9333333333333333
0.475   0.2666666666666667   0.7666666666666667
0.475   0.6   0.7666666666666667
0.475   0.9333333333333333   0.4333333333333333
0.475   0.9333333333333333   0.7666666666666667
0.475   0.9333333333333333   0.1
0.4750001375   0.0444443833333334   0.9333333333333333
0.4750001375   0.3777777166666668   0.9333333333333333
0.4750001375   0.71111105   0.2666666666666666
0.4750001375   0.71111105   0.6000000000000001
0.4750001375   0.71111105   0.9333333333333333
0.6   0.1   0.7666666666666667
0.6   0.4333333333333334   0.7666666666666667
0.6   0.7666666666666667   0.4333333333333333
0.6   0.7666666666666667   0.7666666666666667
0.6   0.7666666666666667   0.1
0.6000001375   0.2111110500000001   0.9333333333333333
0.6000001375   0.5444443833333333   0.9333333333333333
0.6000001375   0.8777777166666666   0.2666666666666666
0.6000001375   0.8777777166666666   0.6000000000000001
0.6000001375   0.8777777166666666   0.9333333333333333
0.725   0.2666666666666667   0.7666666666666667
0.725   0.6   0.7666666666666667
0.725   0.9333333333333333   0.4333333333333333
0.725   0.9333333333333333   0.7666666666666667
0.725   0.9333333333333333   0.1
0.7250001374999999   0.0444443833333334   0.9333333333333333
0.7250001374999999   0.3777777166666668   0.9333333333333333
0.7250001374999999   0.71111105   0.2666666666666666
0.7250001374999999   0.71111105   0.6000000000000001
0.7250001374999999   0.71111105   0.9333333333333333
0.85   0.1   0.7666666666666667
0.85   0.4333333333333334   0.7666666666666667
0.85   0.7666666666666667   0.4333333333333333
0.85   0.7666666666666667   0.7666666666666667
0.85   0.7666666666666667   0.1
0.8500001375   0.2111110500000001   0.9333333333333333
0.8500001375   0.5444443833333333   0.9333333333333333
0.8500001375   0.8777777166666666   0.2666666666666666
0.8500001375   0.8777777166666666   0.6000000000000001
0.8500001375   0.8777777166666666   0.9333333333333333
0.975   0.2666666666666667   0.7666666666666667
0.975   0.6   0.7666666666666667
0.975   0.9333333333333333   0.4333333333333333
0.975   0.9333333333333333   0.7666666666666667
0.975   0.9333333333333333   0.1
0.9750001374999999   0.0444443833333334   0.9333333333333333
0.9750001374999999   0.3777777166666668   0.9333333333333333
0.9750001374999999   0.71111105   0.2666666666666666
0.9750001374999999   0.71111105   0.6000000000000001
0.9750001374999999   0.71111105   0.9333333333333333
  0.0986235669607186  0.4331863223542156  0.4338098248609986
  0.0996426975250425  0.4337158087312238  0.1005332152023714
  0.0997095377757437  0.2105609959338219  0.2668951133712940
  0.0997410693888384  0.0998415701998767  0.4336454151155127
  0.0997513163848035  0.2105293184557488  0.6005202227250733
  0.0999002624629012  0.5443519526366367  0.2669788407767247
  0.1000000000000000  0.1000000000000000  0.1000000000000000
  0.1001316546287773  0.5442857787841058  0.6003223377851786
  0.2238803028865317  0.3771217748096378  0.2667258144831333
  0.2239586474171085  0.2660452869777584  0.4348529245595548
  0.2241373506623218  0.6008819095283479  0.4336666268065998
  0.2241729553270654  0.3770705838015893  0.6018347139811847
  0.2244148309180230  0.2664812705772855  0.1007652560835969
  0.2245108191200321  0.6003776321048653  0.1004479490036487
  0.2246561248281813  0.0443274906337877  0.2663662053526038
  0.2251255710417319  0.0441430876786941  0.6003828441291446
  0.3397321285130444  0.4379876993372200  0.4376721141626036
  0.3488841887820856  0.2103896039073425  0.2666536741360462
  0.3490008269048696  0.4340104003850489  0.1003710579457379
  0.3490232425713866  0.2106090902452371  0.6017656230677789
  0.3492593269942037  0.0991821193244889  0.4338780875219386
  0.3500030386686566  0.0997556710010285  0.1006370585681038
  0.3500154394201351  0.5454301417917747  0.2665702720982503
  0.3504042862576420  0.5453673670812599  0.6018538768021303
  0.4752996413438066  0.3777404226924113  0.6024657264480057
  0.4753016474283370  0.6007217691308790  0.1008625916770194
  0.4753036062793231  0.2657662158461420  0.1002079494687202
  0.4753036339744966  0.0444804570741279  0.2672211689739820
  0.4753040465463775  0.2575575043320633  0.4375845642677198
  0.4753048967826581  0.0447161197504353  0.6007984998054531
  0.4753074160273754  0.6010253165004942  0.4347032267866193
  0.4753074492158367  0.3774984035359613  0.2562981847979927
  0.6002012386035780  0.5453596085584110  0.6018559844881748
  0.6005878987489560  0.5454276471677654  0.2665725290399911
  0.6006054234961373  0.0997546592734235  0.1006330901071332
  0.6013366595168016  0.0991815317131179  0.4338789084750334
  0.6015816811702279  0.2106077439660625  0.6017684965206727
  0.6016111441763105  0.4340090943935422  0.1003724723884844
  0.6017229209392292  0.2103864853167713  0.2666519154663088
  0.6108725368271154  0.4379832664534348  0.4376748105012794
  0.7254819114922120  0.0441399101917425  0.6003845392988120
  0.7259456494470163  0.0443256845587250  0.2663678221862733
  0.7260990506813308  0.6003903956666001  0.1004517213084750
  0.7261902195189937  0.2664835760268974  0.1007641755173042
  0.7264338262379803  0.3770643418553209  0.6018314931918444
  0.7264685883220237  0.6008801669538669  0.4336725881077625
  0.7266520798253738  0.2660419409893074  0.4348554938940052
  0.7267230001891365  0.3771186059785938  0.2667304038481400
  0.8504783111199902  0.5442835470691421  0.6003257863243815
  0.8505963452752484  0.1000020795633196  0.1000011381422640
  0.8507078054944543  0.5443517372862848  0.2669778389799678
  0.8508576276987656  0.2105313530072250  0.6005203439536259
  0.8508618116709288  0.0998403334946984  0.4336431006225738
  0.8508931892835551  0.2105580156315581  0.2669000528537954
  0.8509623310035280  0.4337095258566246  0.1005353008054597
  0.8519921196682265  0.4331870059159363  0.4338120555206429
  0.9752958168062080  0.0440212965362503  0.6001106619189999
  0.9753008769733121  0.6000352691671496  0.4334463225379659
  0.9753011180431246  0.0441092339420295  0.2665270729758146
  0.9753015059300362  0.6001816180627306  0.1000925219991056
  0.9753031074260977  0.2667633568558366  0.1002132656426861
  0.9753040503871716  0.3773172874693492  0.2664410961069842
  0.9753084870754130  0.2661469887497452  0.4337382625974102
  0.9753104328285203  0.3774263787892175  0.6004492743729014
0.1   0.1   0.8936989093333333
0.1   0.4333333333333334   0.8936989093333333
0.1   0.7666666666666667   0.2270322426666667
0.1   0.7666666666666667   0.5603655760000001
0.1   0.7666666666666667   0.8936989093333333
0.1000001375   0.2111110500000001   0.7270322426666667
0.1000001375   0.5444443833333333   0.7270322426666667
0.1000001375   0.8777777166666666   0.3936989093333334
0.1000001375   0.8777777166666666   0.7270322426666667
0.1000001375   0.8777777166666666   0.0603655759999999
0.225   0.2666666666666667   0.8936989093333333
0.225   0.6   0.8936989093333333
0.225   0.9333333333333333   0.2270322426666667
0.225   0.9333333333333333   0.5603655760000001
0.225   0.9333333333333333   0.8936989093333333
0.2250001375   0.0444443833333334   0.7270322426666667
0.2250001375   0.3777777166666668   0.7270322426666667
0.2250001375   0.71111105   0.3936989093333334
0.2250001375   0.71111105   0.7270322426666667
0.2250001375   0.71111105   0.0603655759999999
0.35   0.1   0.8936989093333333
0.35   0.4333333333333334   0.8936989093333333
0.35   0.7666666666666667   0.2270322426666667
0.35   0.7666666666666667   0.5603655760000001
0.35   0.7666666666666667   0.8936989093333333
0.3500001375   0.2111110500000001   0.7270322426666667
0.3500001375   0.5444443833333333   0.7270322426666667
0.3500001375   0.8777777166666666   0.3936989093333334
0.3500001375   0.8777777166666666   0.7270322426666667
0.3500001375   0.8777777166666666   0.0603655759999999
0.475   0.2666666666666667   0.8936989093333333
0.475   0.6   0.8936989093333333
0.475   0.9333333333333333   0.2270322426666667
0.475   0.9333333333333333   0.5603655760000001
0.475   0.9333333333333333   0.8936989093333333
0.4750001375   0.0444443833333334   0.7270322426666667
0.4750001375   0.3777777166666668   0.7270322426666667
0.4750001375   0.71111105   0.3936989093333334
0.4750001375   0.71111105   0.7270322426666667
0.4750001375   0.71111105   0.0603655759999999
0.6   0.1   0.8936989093333333
0.6   0.4333333333333334   0.8936989093333333
0.6   0.7666666666666667   0.2270322426666667
0.6   0.7666666666666667   0.5603655760000001
0.6   0.7666666666666667   0.8936989093333333
0.6000001375   0.2111110500000001   0.7270322426666667
0.6000001375   0.5444443833333333   0.7270322426666667
0.6000001375   0.8777777166666666   0.3936989093333334
0.6000001375   0.8777777166666666   0.7270322426666667
0.6000001375   0.8777777166666666   0.0603655759999999
0.725   0.2666666666666667   0.8936989093333333
0.725   0.6   0.8936989093333333
0.725   0.9333333333333333   0.2270322426666667
0.725   0.9333333333333333   0.5603655760000001
0.725   0.9333333333333333   0.8936989093333333
0.7250001374999999   0.0444443833333334   0.7270322426666667
0.7250001374999999   0.3777777166666668   0.7270322426666667
0.7250001374999999   0.71111105   0.3936989093333334
0.7250001374999999   0.71111105   0.7270322426666667
0.7250001374999999   0.71111105   0.0603655759999999
0.85   0.1   0.8936989093333333
0.85   0.4333333333333334   0.8936989093333333
0.85   0.7666666666666667   0.2270322426666667
0.85   0.7666666666666667   0.5603655760000001
0.85   0.7666666666666667   0.8936989093333333
0.8500001375   0.2111110500000001   0.7270322426666667
0.8500001375   0.5444443833333333   0.7270322426666667
0.8500001375   0.8777777166666666   0.3936989093333334
0.8500001375   0.8777777166666666   0.7270322426666667
0.8500001375   0.8777777166666666   0.0603655759999999
0.975   0.2666666666666667   0.8936989093333333
0.975   0.6   0.8936989093333333
0.975   0.9333333333333333   0.2270322426666667
0.975   0.9333333333333333   0.5603655760000001
0.975   0.9333333333333333   0.8936989093333333
0.9750001374999999   0.0444443833333334   0.7270322426666667
0.9750001374999999   0.3777777166666668   0.7270322426666667
0.9750001374999999   0.71111105   0.3936989093333334
0.9750001374999999   0.71111105   0.7270322426666667
0.9750001374999999   0.71111105   0.0603655759999999
  0.1001881450988324  0.0998678875545287  0.2270404469483840
  0.1002559647664426  0.2111134166885424  0.0606684872383061
  0.1003632630141919  0.5444053146758441  0.0605444043326664
  0.1003634547606461  0.4332623623482507  0.2275938274754471
  0.1004512464213630  0.0996995118847197  0.5605229758905109
  0.1004551508985224  0.2109294958469498  0.3939689522946736
  0.1006679778946687  0.5439295380114808  0.3941290192666083
  0.1007596192964168  0.4330125319822115  0.5605413845918970
  0.2251383604292381  0.2665328727894706  0.2277635774366168
  0.2251855699032395  0.5997173672003294  0.2275097581802710
  0.2252089629481958  0.0445360080288143  0.3935589431867680
  0.2253387121451274  0.3778511066069247  0.0616198976109252
  0.2253927034514354  0.2666284604355836  0.5612908795117629
  0.2254134792886255  0.0445120291357930  0.0605751448884085
  0.2258101511081359  0.5995067963167716  0.5604006190069749
  0.2261040095221911  0.3772752512165172  0.3941621317320754
  0.3502637237024645  0.2112783509916123  0.0615967144625102
  0.3502873789725072  0.2119229549230529  0.3941291752770417
  0.3503542057409161  0.0998683784183722  0.2277245634821949
  0.3503820609755468  0.5445638182601937  0.0616681959217766
  0.3504135277866577  0.1002943770879676  0.5606110286299349
  0.3504427978667852  0.4331556817303039  0.2293270346436079
  0.3509723899007788  0.4330262469063844  0.5611459795766924
  0.3512278837600687  0.5441763891325886  0.3940972010944122
  0.4752994114602977  0.0449620318165383  0.3943896587094969
  0.4753025581724049  0.2672018750428672  0.5611252172279829
  0.4753027612879024  0.5999694847224352  0.2279009807286853
  0.4753031293440573  0.0447432733972094  0.0608929891314114
  0.4753043143121848  0.3779431982599630  0.0629454370185459
  0.4753048843568199  0.2665445353975785  0.2292114296213742
  0.4753054205576890  0.5999521835892717  0.5612345376308087
  0.5993809450218428  0.5441723001520934  0.3940986017487764
  0.5996331794571491  0.4330211925341458  0.5611471322430533
  0.6001699855124408  0.4331535338654380  0.2293278863308554
  0.6001955999229074  0.1002923263696918  0.5606113265145929
  0.6002221767263380  0.5445621941251739  0.0616712551298871
  0.6002519423126745  0.0998677758809442  0.2277218860179138
  0.6003209932507091  0.2119228161277063  0.3941286235280668
  0.6003424629307894  0.2112777275497023  0.0615961166182222
  0.7245084057050859  0.3772737027510580  0.3941679649809891
  0.7247978045782674  0.5995011744919130  0.5604059503989598
  0.7251912911713908  0.0445066744602418  0.0605758035894193
  0.7252123890001930  0.2666243890159274  0.5612915233857857
  0.7252677313466197  0.3778497012139721  0.0616154070010854
  0.7253917358208261  0.0445351490851978  0.3935617642648575
  0.7254193824680272  0.5997156444622774  0.2275133627222402
  0.7254689813090304  0.2665317631753049  0.2277621986944233
  0.8498453807658993  0.4330119063832186  0.5605440122931656
  0.8499373123209737  0.5439285838360118  0.3941285453431600
  0.8501497802592504  0.0997008469135954  0.5605206667369022
  0.8501567985281864  0.2109296878996681  0.3939707779195796
  0.8502417463723477  0.4332595424709005  0.2275944411493654
  0.8502424521829142  0.5444007525067965  0.0605472929928127
  0.8503486257480191  0.2111143456618481  0.0606663583766878
  0.8504110033700963  0.0998665760439355  0.2270406794668690
  0.9752958804422308  0.0443744603498103  0.0603350482587261
  0.9752998636394803  0.2664768973883671  0.2272063803261671
  0.9753026705818388  0.0441531235207007  0.3936292350328639
  0.9753027925319887  0.5995581464144503  0.5603131171161354
  0.9753029129359363  0.5996999336317717  0.2271666012893475
  0.9753038589630831  0.3778522589202621  0.0606195600173046
  0.9753049046368317  0.2665241100924693  0.5605665117682325
  0.9753057866701401  0.3771563629162199  0.3936285535874093
