This file is generated by VASPKIT code  
    1.000000000000000     
    12.9960000000000004    0.0000000000000000    0.0000000000000000
     0.0000000000000000   11.2548661479999996    0.0000000000000000
     0.0000000000000000    0.0000000000000000   10.4097960000000000
   Zn   O 
    63    64
Direct
  0.1241313633142582  0.0825846367626871  0.2486270928116631
  0.1242398046817360  0.0825791307663906  0.7506721460164799
  0.1250548086794273  0.5832139020083064  0.2500405603481899
  0.1231272284924679  0.5849809019677263  0.7522089959796558
  0.3750000499999970  0.0831448148283693  0.2519828619379522
  0.3750000499999970  0.0830390757159364  0.7517136951287088
  0.3750000499999970  0.5837549872796477  0.2516921426307819
  0.3750000499999970  0.5846318441169692  0.7524885189569578
  0.6258687366857359  0.0825846367626871  0.2486270928116631
  0.6257602953182578  0.0825791307663906  0.7506721460164799
  0.6249452913205669  0.5832139020083064  0.2500405603481899
  0.6268728715075262  0.5849809019677263  0.7522089959796558
  0.8750000499999970  0.0824136114821215  0.2428208751234297
  0.8750000499999970  0.0786279985551064  0.7507580083933820
  0.8750000499999970  0.5834726045309393  0.2474686306612310
  0.8750000499999970  0.5829708014185384  0.7503130698296303
  0.9998529797377067  0.3332123165745155  0.2494861707259413
  0.9997789653110990  0.3310364548430914  0.7516956916445319
  0.9992279747570050  0.8332359460251526  0.2429908511263436
  0.9962977279759477  0.8353295788900051  0.7509748431904114
  0.2501471477340543  0.3330113989316091  0.2521290707160307
  0.2494519045434015  0.3338511637868832  0.7519259737846883
  0.2497216756934715  0.8333863818540442  0.2502517738492533
  0.2481591025086511  0.8344244182615498  0.7523483234476037
  0.4998529522659398  0.3330113989316091  0.2521290707160307
  0.5005481954565928  0.3338511637868832  0.7519259737846883
  0.5002784243065299  0.8333863818540442  0.2502517738492533
  0.5018409974913427  0.8344244182615498  0.7523483234476037
  0.7501471202622874  0.3332123165745155  0.2494861707259413
  0.7502211346888951  0.3310364548430914  0.7516956916445319
  0.7507721252429891  0.8332359460251526  0.2429908511263436
  0.7537023720240463  0.8353295788900051  0.7509748431904114
  0.9995139808808946  0.1667281701974621  0.4987465727308333
  0.9981996704346959  0.1629867424487307  0.9978813074314077
  0.9997014677435004  0.6670461903513570  0.4985925181811277
  0.9984278897304616  0.6688268752850041  0.9976396200945082
  0.2493901880228047  0.1664748268835611  0.5017527549064630
  0.2499198666157150  0.1668914784045678  0.0016120665284788
  0.2494724701222116  0.6674939863244463  0.5017797747463103
  0.2487109812603178  0.6686486261544828 -0.0000254585990444
  0.5006096369771985  0.1664748268835611  0.5017527549064630
  0.5000799583842884  0.1668914784045678  0.0016120665284788
  0.5005273548777919  0.6674939863244463  0.5017797747463103
  0.5012888437396857  0.6686486261544828 -0.0000254585990444
  0.7504858441191087  0.1667281701974621  0.4987465727308333
  0.7518001545653074  0.1629867424487307  0.9978813074314077
  0.7502983572565028  0.6670461903513570  0.4985925181811277
  0.7515719352695417  0.6688268752850041  0.9976396200945082
  0.1247355008638477  0.4170541888954706  0.5017782229942676
  0.1254451840710466  0.4164846224032878  0.0015975567434805
  0.1242917926816939  0.9168280726987966  0.4989647235986302
  0.1212726972810234  0.9161716246227998  0.9981319814541086
  0.3749999125000016  0.4173408295208980  0.5023721381540992
  0.3749999125000016  0.4180556735040850  0.0017604474606696
  0.3749999125000016  0.9166881485442278  0.5019817985114532
  0.3749999125000016  0.9177647852889385  0.0017774744618282
  0.6252643241361554  0.4170541888954706  0.5017782229942676
  0.6245546409289565  0.4164846224032878  0.0015975567434805
  0.6257080323183095  0.9168280726987966  0.4989647235986302
  0.6287271277189798  0.9161716246227998  0.9981319814541086
  0.8749999125000016  0.4169192066324466  0.5006871116734557
  0.8749999125000016  0.4133671993418791  0.9982168687038511
  0.8749999125000016  0.9168793933440242  0.4847293648756772
  0.1257279497753809  0.0840885211985461  0.4393188740050350
  0.1269953784019737  0.0842705750571350  0.9407996128111434
  0.1260950154916833  0.5827320623623912  0.4406776708896339
  0.1268386495837567  0.5808501063318403  0.9417201825678917
  0.3750000499999970  0.0837153426549903  0.4425351030248122
  0.3750000499999970  0.0844308019624717  0.9419633424069449
  0.3750000499999970  0.5836797678417178  0.4423958897170305
  0.3750000499999970  0.5841784038104657  0.9426367298141594
  0.6242721502246131  0.0840885211985461  0.4393188740050350
  0.6230047215980203  0.0842705750571350  0.9407996128111434
  0.6239050845083107  0.5827320623623912  0.4406776708896339
  0.6231614504162372  0.5808501063318403  0.9417201825678917
  0.8750000499999970  0.0877828917720804  0.4382298032028283
  0.8750000499999970  0.0998867361481589  0.9315109704345760
  0.8750000499999970  0.5824200763699490  0.4385042812366561
  0.8750000499999970  0.5798351792427855  0.9404078564706926
  0.0004721560021315  0.3345968058368413  0.4402627232416196
  0.0023483893251314  0.3343802608936365  0.9412705176276216
  0.0032783768637325  0.8311341309528355  0.4384016961558074
  0.0128854308047555  0.8238660871356888  0.9315456618612962
  0.2504561771955964  0.3334879113190792  0.4426555621291716
  0.2512239207115853  0.3333810174967431  0.9422329992530905
  0.2509125202014014  0.8333447522477446  0.4408890568904613
  0.2521830462028335  0.8345225899238817  0.9418597540986963
  0.4995439228043976  0.3334879113190792  0.4426555621291716
  0.4987761792884087  0.3333810174967431  0.9422329992530905
  0.4990875797985926  0.8333447522477446  0.4408890568904613
  0.4978170537971606  0.8345225899238817  0.9418597540986963
  0.7495279439978627  0.3345968058368413  0.4402627232416196
  0.7476517106748627  0.3343802608936365  0.9412705176276216
  0.7467217231362616  0.8311341309528355  0.4384016961558074
  0.7371146691952385  0.8238660871356888  0.9315456618612962
  0.0013745332130390  0.1682262154098608  0.1896101967707737
  0.0014507194869574  0.1666316589638590  0.6879175670883666
  0.0009211651750774  0.6641329197245818  0.1895350106693201
  0.9992926441194463  0.6650876655925764  0.6878256180468039
  0.2506573908380934  0.1670021809274974  0.1922905501463558
  0.2504606169436995  0.1673392686290216  0.6919254233308822
  0.2505376272710297  0.6665765270888769  0.1914637307739230
  0.2498364735063064  0.6670244801937075  0.6920127751806705
  0.4993424341619099  0.1670021809274974  0.1922905501463558
  0.4995392080563038  0.1673392686290216  0.6919254233308822
  0.4994621977289735  0.6665765270888769  0.1914637307739230
  0.5001633514936970  0.6670244801937075  0.6920127751806705
  0.7486252917869645  0.1682262154098608  0.1896101967707737
  0.7485491055130460  0.1666316589638590  0.6879175670883666
  0.7490786598249259  0.6641329197245818  0.1895350106693201
  0.7507071808805570  0.6650876655925764  0.6878256180468039
  0.1261046866304020  0.4161667688749681  0.1923936292429949
  0.1250296761155054  0.4170562133526034  0.6917445533259731
  0.1268389733504046  0.9169006937186454  0.1898340730407945
  0.1257023424139791  0.9177098411474927  0.6881337760286189
  0.3749999125000016  0.4168628818013214  0.1927283257517657
  0.3749999125000016  0.4174769580554484  0.6927081703714435
  0.3749999125000016  0.9172519119453305  0.1926041769876897
  0.3749999125000016  0.9166120656670672  0.6919688064556525
  0.6238951383696012  0.4161667688749681  0.1923936292429949
  0.6249701488844975  0.4170562133526034  0.6917445533259731
  0.6231608516495986  0.9169006937186454  0.1898340730407945
  0.6242974825860241  0.9177098411474927  0.6881337760286189
  0.8749999125000016  0.4158529776746718  0.1898228439188140
  0.8749999125000016  0.4151562353701160  0.6908136150932725
  0.8749999125000016  0.9165069086087243  0.2179081639708963
  0.8749999125000016  0.9166266325268698  0.6782743973830562
 
  0.00000000E+00  0.00000000E+00  0.00000000E+00
  0.00000000E+00  0.00000000E+00  0.00000000E+00
  0.00000000E+00  0.00000000E+00  0.00000000E+00
  0.00000000E+00  0.00000000E+00  0.00000000E+00
  0.00000000E+00  0.00000000E+00  0.00000000E+00
  0.00000000E+00  0.00000000E+00  0.00000000E+00
  0.00000000E+00  0.00000000E+00  0.00000000E+00
  0.00000000E+00  0.00000000E+00  0.00000000E+00
  0.00000000E+00  0.00000000E+00  0.00000000E+00
  0.00000000E+00  0.00000000E+00  0.00000000E+00
  0.00000000E+00  0.00000000E+00  0.00000000E+00
  0.00000000E+00  0.00000000E+00  0.00000000E+00
  0.00000000E+00  0.00000000E+00  0.00000000E+00
  0.00000000E+00  0.00000000E+00  0.00000000E+00
  0.00000000E+00  0.00000000E+00  0.00000000E+00
  0.00000000E+00  0.00000000E+00  0.00000000E+00
  0.00000000E+00  0.00000000E+00  0.00000000E+00
  0.00000000E+00  0.00000000E+00  0.00000000E+00
  0.00000000E+00  0.00000000E+00  0.00000000E+00
  0.00000000E+00  0.00000000E+00  0.00000000E+00
  0.00000000E+00  0.00000000E+00  0.00000000E+00
  0.00000000E+00  0.00000000E+00  0.00000000E+00
  0.00000000E+00  0.00000000E+00  0.00000000E+00
  0.00000000E+00  0.00000000E+00  0.00000000E+00
  0.00000000E+00  0.00000000E+00  0.00000000E+00
  0.00000000E+00  0.00000000E+00  0.00000000E+00
  0.00000000E+00  0.00000000E+00  0.00000000E+00
  0.00000000E+00  0.00000000E+00  0.00000000E+00
  0.00000000E+00  0.00000000E+00  0.00000000E+00
  0.00000000E+00  0.00000000E+00  0.00000000E+00
  0.00000000E+00  0.00000000E+00  0.00000000E+00
  0.00000000E+00  0.00000000E+00  0.00000000E+00
  0.00000000E+00  0.00000000E+00  0.00000000E+00
  0.00000000E+00  0.00000000E+00  0.00000000E+00
  0.00000000E+00  0.00000000E+00  0.00000000E+00
  0.00000000E+00  0.00000000E+00  0.00000000E+00
  0.00000000E+00  0.00000000E+00  0.00000000E+00
  0.00000000E+00  0.00000000E+00  0.00000000E+00
  0.00000000E+00  0.00000000E+00  0.00000000E+00
  0.00000000E+00  0.00000000E+00  0.00000000E+00
  0.00000000E+00  0.00000000E+00  0.00000000E+00
  0.00000000E+00  0.00000000E+00  0.00000000E+00
  0.00000000E+00  0.00000000E+00  0.00000000E+00
  0.00000000E+00  0.00000000E+00  0.00000000E+00
  0.00000000E+00  0.00000000E+00  0.00000000E+00
  0.00000000E+00  0.00000000E+00  0.00000000E+00
  0.00000000E+00  0.00000000E+00  0.00000000E+00
  0.00000000E+00  0.00000000E+00  0.00000000E+00
  0.00000000E+00  0.00000000E+00  0.00000000E+00
  0.00000000E+00  0.00000000E+00  0.00000000E+00
  0.00000000E+00  0.00000000E+00  0.00000000E+00
  0.00000000E+00  0.00000000E+00  0.00000000E+00
  0.00000000E+00  0.00000000E+00  0.00000000E+00
  0.00000000E+00  0.00000000E+00  0.00000000E+00
  0.00000000E+00  0.00000000E+00  0.00000000E+00
  0.00000000E+00  0.00000000E+00  0.00000000E+00
  0.00000000E+00  0.00000000E+00  0.00000000E+00
  0.00000000E+00  0.00000000E+00  0.00000000E+00
  0.00000000E+00  0.00000000E+00  0.00000000E+00
  0.00000000E+00  0.00000000E+00  0.00000000E+00
  0.00000000E+00  0.00000000E+00  0.00000000E+00
  0.00000000E+00  0.00000000E+00  0.00000000E+00
  0.00000000E+00  0.00000000E+00  0.00000000E+00
  0.00000000E+00  0.00000000E+00  0.00000000E+00
  0.00000000E+00  0.00000000E+00  0.00000000E+00
  0.00000000E+00  0.00000000E+00  0.00000000E+00
  0.00000000E+00  0.00000000E+00  0.00000000E+00
  0.00000000E+00  0.00000000E+00  0.00000000E+00
  0.00000000E+00  0.00000000E+00  0.00000000E+00
  0.00000000E+00  0.00000000E+00  0.00000000E+00
  0.00000000E+00  0.00000000E+00  0.00000000E+00
  0.00000000E+00  0.00000000E+00  0.00000000E+00
  0.00000000E+00  0.00000000E+00  0.00000000E+00
  0.00000000E+00  0.00000000E+00  0.00000000E+00
  0.00000000E+00  0.00000000E+00  0.00000000E+00
  0.00000000E+00  0.00000000E+00  0.00000000E+00
  0.00000000E+00  0.00000000E+00  0.00000000E+00
  0.00000000E+00  0.00000000E+00  0.00000000E+00
  0.00000000E+00  0.00000000E+00  0.00000000E+00
  0.00000000E+00  0.00000000E+00  0.00000000E+00
  0.00000000E+00  0.00000000E+00  0.00000000E+00
  0.00000000E+00  0.00000000E+00  0.00000000E+00
  0.00000000E+00  0.00000000E+00  0.00000000E+00
  0.00000000E+00  0.00000000E+00  0.00000000E+00
  0.00000000E+00  0.00000000E+00  0.00000000E+00
  0.00000000E+00  0.00000000E+00  0.00000000E+00
  0.00000000E+00  0.00000000E+00  0.00000000E+00
  0.00000000E+00  0.00000000E+00  0.00000000E+00
  0.00000000E+00  0.00000000E+00  0.00000000E+00
  0.00000000E+00  0.00000000E+00  0.00000000E+00
  0.00000000E+00  0.00000000E+00  0.00000000E+00
  0.00000000E+00  0.00000000E+00  0.00000000E+00
  0.00000000E+00  0.00000000E+00  0.00000000E+00
  0.00000000E+00  0.00000000E+00  0.00000000E+00
  0.00000000E+00  0.00000000E+00  0.00000000E+00
  0.00000000E+00  0.00000000E+00  0.00000000E+00
  0.00000000E+00  0.00000000E+00  0.00000000E+00
  0.00000000E+00  0.00000000E+00  0.00000000E+00
  0.00000000E+00  0.00000000E+00  0.00000000E+00
  0.00000000E+00  0.00000000E+00  0.00000000E+00
  0.00000000E+00  0.00000000E+00  0.00000000E+00
  0.00000000E+00  0.00000000E+00  0.00000000E+00
  0.00000000E+00  0.00000000E+00  0.00000000E+00
  0.00000000E+00  0.00000000E+00  0.00000000E+00
  0.00000000E+00  0.00000000E+00  0.00000000E+00
  0.00000000E+00  0.00000000E+00  0.00000000E+00
  0.00000000E+00  0.00000000E+00  0.00000000E+00
  0.00000000E+00  0.00000000E+00  0.00000000E+00
  0.00000000E+00  0.00000000E+00  0.00000000E+00
  0.00000000E+00  0.00000000E+00  0.00000000E+00
  0.00000000E+00  0.00000000E+00  0.00000000E+00
  0.00000000E+00  0.00000000E+00  0.00000000E+00
  0.00000000E+00  0.00000000E+00  0.00000000E+00
  0.00000000E+00  0.00000000E+00  0.00000000E+00
  0.00000000E+00  0.00000000E+00  0.00000000E+00
  0.00000000E+00  0.00000000E+00  0.00000000E+00
  0.00000000E+00  0.00000000E+00  0.00000000E+00
  0.00000000E+00  0.00000000E+00  0.00000000E+00
  0.00000000E+00  0.00000000E+00  0.00000000E+00
  0.00000000E+00  0.00000000E+00  0.00000000E+00
  0.00000000E+00  0.00000000E+00  0.00000000E+00
  0.00000000E+00  0.00000000E+00  0.00000000E+00
  0.00000000E+00  0.00000000E+00  0.00000000E+00
  0.00000000E+00  0.00000000E+00  0.00000000E+00
  0.00000000E+00  0.00000000E+00  0.00000000E+00
  0.00000000E+00  0.00000000E+00  0.00000000E+00
  0.00000000E+00  0.00000000E+00  0.00000000E+00
