This file is generated by VASPKIT code  
    1.000000000000000     
    12.9960000000000004    0.0000000000000000    0.0000000000000000
     0.0000000000000000   11.2548661479999996    0.0000000000000000
     0.0000000000000000    0.0000000000000000   10.4097960000000000
   Zn   O 
    64    63
Direct
  0.9982848270585943  0.1671580660426169  0.4990214577223000
  0.9991549144802657  0.1665940518697440  0.9981526765446694
  0.9958082332018237  0.6662308442825280  0.4987830412838092
  0.9984721738104502  0.6674876303176280  0.0002829144666939
  0.9989792874086845  0.3327084368874091  0.2486585961884186
  0.9988827114282997  0.3321700862551267  0.7494389448799121
  0.9991047183534731  0.8335804624650321  0.2486442899809447
  0.9996682893514348  0.8332134800782398  0.7493144308941420
  0.1229003164370829  0.4153145262821861  0.5015768609789237
  0.1233338888263033  0.5825537905899962  0.2487557329597440
  0.1243069218244283  0.0830405756581224  0.7498808566097823
  0.1232803987727930  0.4155635140311310  0.0015469130799360
  0.1235996106270859  0.0840009634455321  0.2471081309447485
  0.1232032573521384  0.9177546707390154  0.0005671577818156
  0.1219375022797492  0.5810376933289886  0.7538546824222645
  0.1214220899443500  0.9213281320728471  0.4986701140840492
  0.2500960103217790  0.8379055967421882  0.7538392311662163
  0.2491994022062666  0.1651676026530720  0.0010765914154067
  0.2484508337250770  0.3319748353888876  0.2491604270479207
  0.2493106019724233  0.8353840383539176  0.2490136157618397
  0.2459025972361335  0.6696216529890839 -0.0029084230714715
  0.2472528807410035  0.1626917529664914  0.4999502624426671
  0.2465478610339094  0.3317979887551379  0.7539039057050596
  0.2210266240162762  0.6864601835161229  0.5167999490039025
  0.3749988443795363  0.5837111984227068  0.7558487318268898
  0.3750027659732604  0.3784940826586549  0.5171082975780685
  0.3749958772658689  0.9190043734948713  0.5021105887926575
  0.3750024568101621  0.5829814987535283  0.2031234151694106
  0.3750024716860552  0.4112714921434170  0.9970365791461604
  0.3750041434854077  0.0834909196843894  0.2506479538413193
  0.3749986953358605  0.0847114069323858  0.7514866703689167
  0.3749961814035846  0.9184534021566388  0.0020862422021876
  0.5289658771515521  0.6864607614533961  0.5168054511460378
  0.5034603093405218  0.3317781778522744  0.7538917676176237
  0.5027465697581840  0.1626870751622010  0.4999487920637708
  0.5040964353420879  0.6696275533389662 -0.0028980380817269
  0.5006909632051656  0.8353926624558553  0.2490264280845505
  0.5015445310332549  0.3319855698482223  0.2491768314410534
  0.5007796630649345  0.1651604332516272  0.0010617006664369
  0.4999010253541109  0.8379109008030804  0.7538447545996078
  0.6285851014744881  0.9213276730955658  0.4986856673049022
  0.6280623223488052  0.5810550562747350  0.7538846621796395
  0.6268064764237335  0.9177501100775791  0.0005782656375054
  0.6263926622291605  0.0840054593547768  0.2471076224960567
  0.6267217241654138  0.4155694736442693  0.0015455405864710
  0.6256809083520354  0.0830471082212044  0.7498843004682345
  0.6266610404706512  0.5825557956473927  0.2487600711222287
  0.6271092863568573  0.4153147241252061  0.5015589162359892
  0.7541815548656158  0.6662290204960725  0.4987735048681980
  0.7515096583872455  0.6674696718824861  0.0002810092169719
  0.7517095937137709  0.1671619209052877  0.4990256139264190
  0.7511268935412708  0.3321622091505222  0.7494488174352358
  0.7510188263561296  0.3327077419696247  0.2486623129756986
  0.7508989096528347  0.8335796210350674  0.2486566745101056
  0.7503304702315227  0.8332173464793576  0.7493220942638935
  0.7508443525316906  0.1665958843242814  0.9981642014813946
  0.8750031293233884  0.4153287620905667  0.4991668025036249
  0.8750038182325260  0.4165197635192062  0.9982718654362087
  0.8750038763193908  0.9167132115832879  0.4987078261370084
  0.8750036467491082  0.9169451978738461  0.9981970304723212
  0.8750008768478532  0.0831968633724744  0.2478117573261251
  0.8750056063741932  0.0825017169818265  0.7483257521229704
  0.8750181359058368  0.5824317622702994  0.2469562680787655
  0.8749942967616067  0.5829256923626049  0.7494765168554006
 -0.0004459584342457  0.1670576418040555  0.1885491818026973
  0.0000893153535027  0.6668222234397442  0.1905363493778529
  0.0007015889580513  0.6663165792787485  0.6887124877319234
  0.0000834585667577  0.3333030543288912  0.4392796490482174
 -0.0000614984895535  0.3332202916904384  0.9393576445992652
  0.0004068157783944  0.8320443780350525  0.4396861931637883
  0.0001866631323992  0.8329890187811608  0.9393762279771272
  0.0001670204980806  0.1661801644644130  0.6891081668314156
  0.1251239697169831  0.4166757471485081  0.1917688653023215
  0.1249387260374175  0.4167497522518433  0.6908522245463962
  0.1248877362268877  0.0833205035242342  0.9397227822124034
  0.1254758766618560  0.9159341460819725  0.6885767821731182
  0.1246582610268980  0.9166184305254313  0.1908207307076023
  0.1240558126365204  0.5826388016629004  0.9423641977451265
  0.1235564131260768  0.0846269278682445  0.4379332507652475
  0.1250499398432261  0.5823224010342344  0.4404067174750126
  0.2499726656578773  0.8350897064233188  0.9424510073356867
  0.2501699347547331  0.1663208149874743  0.1914264904751554
  0.2501239539485129  0.1673893548798960  0.6897812636365609
  0.2489545178612436  0.3326480626806482  0.9424714940740826
  0.2504035997799720  0.6668193910856731  0.6947907822429127
  0.2502963388338370  0.8351223256649138  0.4407852410912065
  0.2491767120225920  0.3334641578043708  0.4407894782466522
  0.2490371990809759  0.6675154221812278  0.1919679039276194
  0.3749995740786515  0.5835009129731419  0.9486465461073507
  0.3750014282319780  0.0847350577344884  0.4415024170516954
  0.3750038750077013  0.4174199039990218  0.6950980586637882
  0.3749981062412825  0.4149144233635756  0.1919348561490165
  0.3750005555172626  0.9165184475128405  0.1924199075229243
  0.3750018786087479  0.9174105309898533  0.6914129245400054
  0.3749912209893361  0.0840440276663073  0.9411491959323366
  0.5009571801748149  0.6675197134983126  0.1919811692497282
  0.5008315781924528  0.3334590223100356  0.4407887920012327
  0.4997051723980242  0.8351283787046989  0.4407945713282498
  0.4995931599777472  0.6668204133010096  0.6947964386499791
  0.5010490571053823  0.3326477056545393  0.9424605229630718
  0.4998787674630097  0.1673862250656518  0.6897775678978404
  0.4998252133507717  0.1663342546718995  0.1913981247426798
  0.5000278091327025  0.8350963487819810  0.9424623822058118
  0.6249406231031845  0.5823200572354352  0.4404083126598440
  0.6264387240300123  0.0846249438688037  0.4379318219267140
  0.6259329378778095  0.5826482306687799  0.9423644566045518
  0.6253432826765127  0.9166174406540767  0.1908249654743008
  0.6245228217672456  0.9159400353507714  0.6885864135534867
  0.6251173209439758  0.0833156623237541  0.9397294487518233
  0.6250711211811452  0.4167463245555752  0.6908570446788285
  0.6248771937817631  0.4166761262495809  0.1917599490258776
  0.7492935734473124  0.6663149056397704  0.6887105764364558
  0.7499167248074715  0.3333037801305935  0.4392848583894964
  0.7499119617888376  0.6668249036685022  0.1905453232862408
  0.7495891445148533  0.8320477254334839  0.4396981527286594
  0.7500619701646661  0.3332203304271180  0.9393592747215809
  0.7504411816381186  0.1670528437368956  0.1885527834247916
  0.7498361179606099  0.1661795811623523  0.6891141576387959
  0.7498257141384457  0.8329899889824943  0.9393822516819069
  0.8749996815684009  0.4165004850909070  0.1886368155966487
  0.8750031038443081  0.4168139425034099  0.6892691142216566
  0.8750009824015349  0.9165532846158522  0.1888328949605930
  0.8750014874944132  0.9157232608311285  0.6887878475145401
  0.8749954204063620  0.0824533010486783  0.4385471762412598
  0.8750015948060766  0.0829273270397477  0.9384036234560310
  0.8749986315069496  0.5811711253867133  0.4377552471165391
  0.8749928212425671  0.5834002619997997  0.9393407265486614
 
  0.00000000E+00  0.00000000E+00  0.00000000E+00
  0.00000000E+00  0.00000000E+00  0.00000000E+00
  0.00000000E+00  0.00000000E+00  0.00000000E+00
  0.00000000E+00  0.00000000E+00  0.00000000E+00
  0.00000000E+00  0.00000000E+00  0.00000000E+00
  0.00000000E+00  0.00000000E+00  0.00000000E+00
  0.00000000E+00  0.00000000E+00  0.00000000E+00
  0.00000000E+00  0.00000000E+00  0.00000000E+00
  0.00000000E+00  0.00000000E+00  0.00000000E+00
  0.00000000E+00  0.00000000E+00  0.00000000E+00
  0.00000000E+00  0.00000000E+00  0.00000000E+00
  0.00000000E+00  0.00000000E+00  0.00000000E+00
  0.00000000E+00  0.00000000E+00  0.00000000E+00
  0.00000000E+00  0.00000000E+00  0.00000000E+00
  0.00000000E+00  0.00000000E+00  0.00000000E+00
  0.00000000E+00  0.00000000E+00  0.00000000E+00
  0.00000000E+00  0.00000000E+00  0.00000000E+00
  0.00000000E+00  0.00000000E+00  0.00000000E+00
  0.00000000E+00  0.00000000E+00  0.00000000E+00
  0.00000000E+00  0.00000000E+00  0.00000000E+00
  0.00000000E+00  0.00000000E+00  0.00000000E+00
  0.00000000E+00  0.00000000E+00  0.00000000E+00
  0.00000000E+00  0.00000000E+00  0.00000000E+00
  0.00000000E+00  0.00000000E+00  0.00000000E+00
  0.00000000E+00  0.00000000E+00  0.00000000E+00
  0.00000000E+00  0.00000000E+00  0.00000000E+00
  0.00000000E+00  0.00000000E+00  0.00000000E+00
  0.00000000E+00  0.00000000E+00  0.00000000E+00
  0.00000000E+00  0.00000000E+00  0.00000000E+00
  0.00000000E+00  0.00000000E+00  0.00000000E+00
  0.00000000E+00  0.00000000E+00  0.00000000E+00
  0.00000000E+00  0.00000000E+00  0.00000000E+00
  0.00000000E+00  0.00000000E+00  0.00000000E+00
  0.00000000E+00  0.00000000E+00  0.00000000E+00
  0.00000000E+00  0.00000000E+00  0.00000000E+00
  0.00000000E+00  0.00000000E+00  0.00000000E+00
  0.00000000E+00  0.00000000E+00  0.00000000E+00
  0.00000000E+00  0.00000000E+00  0.00000000E+00
  0.00000000E+00  0.00000000E+00  0.00000000E+00
  0.00000000E+00  0.00000000E+00  0.00000000E+00
  0.00000000E+00  0.00000000E+00  0.00000000E+00
  0.00000000E+00  0.00000000E+00  0.00000000E+00
  0.00000000E+00  0.00000000E+00  0.00000000E+00
  0.00000000E+00  0.00000000E+00  0.00000000E+00
  0.00000000E+00  0.00000000E+00  0.00000000E+00
  0.00000000E+00  0.00000000E+00  0.00000000E+00
  0.00000000E+00  0.00000000E+00  0.00000000E+00
  0.00000000E+00  0.00000000E+00  0.00000000E+00
  0.00000000E+00  0.00000000E+00  0.00000000E+00
  0.00000000E+00  0.00000000E+00  0.00000000E+00
  0.00000000E+00  0.00000000E+00  0.00000000E+00
  0.00000000E+00  0.00000000E+00  0.00000000E+00
  0.00000000E+00  0.00000000E+00  0.00000000E+00
  0.00000000E+00  0.00000000E+00  0.00000000E+00
  0.00000000E+00  0.00000000E+00  0.00000000E+00
  0.00000000E+00  0.00000000E+00  0.00000000E+00
  0.00000000E+00  0.00000000E+00  0.00000000E+00
  0.00000000E+00  0.00000000E+00  0.00000000E+00
  0.00000000E+00  0.00000000E+00  0.00000000E+00
  0.00000000E+00  0.00000000E+00  0.00000000E+00
  0.00000000E+00  0.00000000E+00  0.00000000E+00
  0.00000000E+00  0.00000000E+00  0.00000000E+00
  0.00000000E+00  0.00000000E+00  0.00000000E+00
  0.00000000E+00  0.00000000E+00  0.00000000E+00
  0.00000000E+00  0.00000000E+00  0.00000000E+00
  0.00000000E+00  0.00000000E+00  0.00000000E+00
  0.00000000E+00  0.00000000E+00  0.00000000E+00
  0.00000000E+00  0.00000000E+00  0.00000000E+00
  0.00000000E+00  0.00000000E+00  0.00000000E+00
  0.00000000E+00  0.00000000E+00  0.00000000E+00
  0.00000000E+00  0.00000000E+00  0.00000000E+00
  0.00000000E+00  0.00000000E+00  0.00000000E+00
  0.00000000E+00  0.00000000E+00  0.00000000E+00
  0.00000000E+00  0.00000000E+00  0.00000000E+00
  0.00000000E+00  0.00000000E+00  0.00000000E+00
  0.00000000E+00  0.00000000E+00  0.00000000E+00
  0.00000000E+00  0.00000000E+00  0.00000000E+00
  0.00000000E+00  0.00000000E+00  0.00000000E+00
  0.00000000E+00  0.00000000E+00  0.00000000E+00
  0.00000000E+00  0.00000000E+00  0.00000000E+00
  0.00000000E+00  0.00000000E+00  0.00000000E+00
  0.00000000E+00  0.00000000E+00  0.00000000E+00
  0.00000000E+00  0.00000000E+00  0.00000000E+00
  0.00000000E+00  0.00000000E+00  0.00000000E+00
  0.00000000E+00  0.00000000E+00  0.00000000E+00
  0.00000000E+00  0.00000000E+00  0.00000000E+00
  0.00000000E+00  0.00000000E+00  0.00000000E+00
  0.00000000E+00  0.00000000E+00  0.00000000E+00
  0.00000000E+00  0.00000000E+00  0.00000000E+00
  0.00000000E+00  0.00000000E+00  0.00000000E+00
  0.00000000E+00  0.00000000E+00  0.00000000E+00
  0.00000000E+00  0.00000000E+00  0.00000000E+00
  0.00000000E+00  0.00000000E+00  0.00000000E+00
  0.00000000E+00  0.00000000E+00  0.00000000E+00
  0.00000000E+00  0.00000000E+00  0.00000000E+00
  0.00000000E+00  0.00000000E+00  0.00000000E+00
  0.00000000E+00  0.00000000E+00  0.00000000E+00
  0.00000000E+00  0.00000000E+00  0.00000000E+00
  0.00000000E+00  0.00000000E+00  0.00000000E+00
  0.00000000E+00  0.00000000E+00  0.00000000E+00
  0.00000000E+00  0.00000000E+00  0.00000000E+00
  0.00000000E+00  0.00000000E+00  0.00000000E+00
  0.00000000E+00  0.00000000E+00  0.00000000E+00
  0.00000000E+00  0.00000000E+00  0.00000000E+00
  0.00000000E+00  0.00000000E+00  0.00000000E+00
  0.00000000E+00  0.00000000E+00  0.00000000E+00
  0.00000000E+00  0.00000000E+00  0.00000000E+00
  0.00000000E+00  0.00000000E+00  0.00000000E+00
  0.00000000E+00  0.00000000E+00  0.00000000E+00
  0.00000000E+00  0.00000000E+00  0.00000000E+00
  0.00000000E+00  0.00000000E+00  0.00000000E+00
  0.00000000E+00  0.00000000E+00  0.00000000E+00
  0.00000000E+00  0.00000000E+00  0.00000000E+00
  0.00000000E+00  0.00000000E+00  0.00000000E+00
  0.00000000E+00  0.00000000E+00  0.00000000E+00
  0.00000000E+00  0.00000000E+00  0.00000000E+00
  0.00000000E+00  0.00000000E+00  0.00000000E+00
  0.00000000E+00  0.00000000E+00  0.00000000E+00
  0.00000000E+00  0.00000000E+00  0.00000000E+00
  0.00000000E+00  0.00000000E+00  0.00000000E+00
  0.00000000E+00  0.00000000E+00  0.00000000E+00
  0.00000000E+00  0.00000000E+00  0.00000000E+00
  0.00000000E+00  0.00000000E+00  0.00000000E+00
  0.00000000E+00  0.00000000E+00  0.00000000E+00
  0.00000000E+00  0.00000000E+00  0.00000000E+00
  0.00000000E+00  0.00000000E+00  0.00000000E+00
  0.00000000E+00  0.00000000E+00  0.00000000E+00
