This file is generated by VASPKIT code  
    1.000000000000000     
     9.7470006943000005    0.0000000000000000    0.0000000000000000
     0.0000000000000000   11.2548665999999997    0.0000000000000000
     0.0000000000000000    0.0000000000000000   10.4097957610999998
   Zn   O 
    48    47
Direct
  0.1666515360475294  0.0827904505002142  0.2026192389441890
  0.1666610215357529  0.0828482680818168  0.7554154514623105
  0.1666716166196019  0.5834579448079851  0.2491629492415969
  0.1666704521853058  0.5845333723650404  0.7504449329018540
  0.5006829137858352  0.0821584992272076  0.2478315168677779
  0.5030901040877327  0.0809920789719689  0.7538137486896995
  0.5013118980402347  0.5836325588483262  0.2465184185995618
  0.5003664348488289  0.5826994268074056  0.7493391835002097
  0.8326310971436715  0.0821548102358024  0.2478313151107491
  0.8302433001191247  0.0809930950269435  0.7538104154962452
  0.8320041626433728  0.5836276513379265  0.2465130604870030
  0.8329721892884102  0.5826954425997930  0.7493302486283394
 -0.0004052248679535  0.3353931299155708  0.2480080700810703
  0.0004730329926719  0.3377135740579430  0.7533426770732212
  0.9983624012943206  0.8315976944016529  0.2483741444041836
  0.9958427776069471  0.8313094525739806  0.7535700667303525
  0.3337341322090078  0.3353811525085800  0.2480052066003376
  0.3328650095702286  0.3377058584465442  0.7533438477432768
  0.3349647058848511  0.8316030879867264  0.2483720694514862
  0.3374837024363422  0.8312983388267070  0.7535755549476885
  0.6666604971477184  0.3333981058744054  0.2492244740715859
  0.6666725986295732  0.3328546844377398  0.7494588606639787
  0.6666661376920300  0.8325110112944485  0.2495319693031421
  0.6666675415081945  0.8317386152012918  0.7504369963395995
  0.9639261608618964  0.1865162811138620  0.5161138898190267
  0.9952729721308500  0.1698571517836280 -0.0036970150489603
  0.9966331140717160  0.6622970612201611  0.4989241021900474
  0.9992374074300823  0.6651767097430590  0.0003061362892729
  0.3694032482750166  0.1865149899650627  0.5161075958565612
  0.3380533063635751  0.1698721533204036 -0.0036878268151836
  0.3367002298430270  0.6622917736047299  0.4989307715492316
  0.3341027109842180  0.6651691908488991  0.0003185158724854
  0.6666863220848559  0.1649175653622415  0.4981465110800335
  0.6666663710417581  0.1680794929474431  0.0017962258058728
  0.6666671101811631  0.6686895608779820  0.4995273785635769
  0.6666671852370357  0.6668997407892399 -0.0021089295284412
  0.1666692237499718  0.4195854593776260  0.5012416506206533
  0.1666747605633411  0.4186172316979870  0.0011225542015465
  0.1666798050119667  0.8778614762504253  0.5161790907648919
  0.1666674719865393  0.9111784625796833 -0.0034566684060884
  0.5038839010341011  0.4210701387814457  0.4984836177991661
  0.5017574198601886  0.4179625238346314  0.9999007271180547
  0.5010325456862725  0.9151802524690729  0.5019600149198076
  0.5014433441627537  0.9158316025689144  0.0015234684023753
  0.8294529188132016  0.4210691231280315  0.4984760423174724
  0.8315818621733783  0.4179638488649548  0.9998960920617005
  0.8323072970939166  0.9151767836986755  0.5019584050696931
  0.8318814740134628  0.9158304695616640  0.0015657327494708
  0.1666583401139138  0.0832788317380622  0.9478872497382406
  0.1666641275600144  0.5847778688293767  0.4400856211757053
  0.1666674810525429  0.5840584064871726  0.9400212447978906
  0.4978999674114131  0.0819876880610817  0.4397722234787839
  0.5011558061238001  0.0828969583680073  0.9421861361993499
  0.5021316696009829  0.5842231100934144  0.4373996256852988
  0.5001577916030646  0.5832923403963680  0.9389917168468851
  0.8354337031235335  0.0819857028124304  0.4397723411237833
  0.8321827914654113  0.0828906506610684  0.9421883869627653
  0.8312023819004755  0.5842273319764403  0.4373977916679515
  0.8331823301615988  0.5832964529805670  0.9389866757472187
  0.0005043382700567  0.3351902015595206  0.4397718024854412
 -0.0000771876109734  0.3351644095877028  0.9416870816027735
  0.9988817124145810  0.8329244669028557  0.4398851796183421
 -0.0014609550840631  0.8326362571012380  0.9419041974696126
  0.3328311846688818  0.3351923894540668  0.4397710301883788
  0.3334165724345359  0.3351591802553712  0.9416753682713810
  0.3344574565953834  0.8329183773509076  0.4398865442230532
  0.3347920098573506  0.8326352823115714  0.9419087246912736
  0.6666670156491732  0.3311178438586084  0.4404042478451821
  0.6666700059894538  0.3328306937298504  0.9393412817769121
  0.6666722478663525  0.8348542354024145  0.4400582042199808
  0.6666653264685397  0.8336307697252068  0.9399389890848682
  0.9989618472288173  0.1676670585117034  0.1910610769752803
  0.0006446233942436  0.1665850238744373  0.6941816107056122
  0.0000611468714411  0.6661958799388084  0.1904895273338757
  0.0000137279664783  0.6671847269714675  0.6887272255686113
  0.3343484295401824  0.1676446331708231  0.1910754287874558
  0.3326896627898481  0.1665813504848482  0.6941757197265935
  0.3332740508715919  0.6662001208120080  0.1904928745801761
  0.3333268449527023  0.6671884676119947  0.6887336502538350
  0.6666585577828229  0.1663707041126155  0.1921522464041664
  0.6666707377370131  0.1656958488006674  0.6880879150297833
  0.6666642247672936  0.6675344894989795  0.1881768715176015
  0.6666673154730556  0.6661247500690030  0.6892714155644643
  0.1666665211729238  0.4165351835107882  0.1912983290505870
  0.1666660163935179  0.4172096399116235  0.6903426936124747
  0.1666615960914709  0.9148613848705908  0.1912535655398152
  0.1666667461290029  0.9169820496260551  0.6940370149377394
  0.5005500971219681  0.4162837876550652  0.1902103341971252
  0.4996998572510915  0.4154504080510855  0.6881548784994346
  0.4997358316398802  0.9165824629340219  0.1915457825632675
  0.5000739831262347  0.9167981710613714  0.6908832305233704
  0.8327743749630137  0.4162859540967669  0.1902160614802290
  0.8336447075014174  0.4154466841621227  0.6881527402476183
  0.8335992819209943  0.9165906099301233  0.1915488161034508
  0.8332635685733860  0.9167974549639807  0.6908825753046374
 
  0.00000000E+00  0.00000000E+00  0.00000000E+00
  0.00000000E+00  0.00000000E+00  0.00000000E+00
  0.00000000E+00  0.00000000E+00  0.00000000E+00
  0.00000000E+00  0.00000000E+00  0.00000000E+00
  0.00000000E+00  0.00000000E+00  0.00000000E+00
  0.00000000E+00  0.00000000E+00  0.00000000E+00
  0.00000000E+00  0.00000000E+00  0.00000000E+00
  0.00000000E+00  0.00000000E+00  0.00000000E+00
  0.00000000E+00  0.00000000E+00  0.00000000E+00
  0.00000000E+00  0.00000000E+00  0.00000000E+00
  0.00000000E+00  0.00000000E+00  0.00000000E+00
  0.00000000E+00  0.00000000E+00  0.00000000E+00
  0.00000000E+00  0.00000000E+00  0.00000000E+00
  0.00000000E+00  0.00000000E+00  0.00000000E+00
  0.00000000E+00  0.00000000E+00  0.00000000E+00
  0.00000000E+00  0.00000000E+00  0.00000000E+00
  0.00000000E+00  0.00000000E+00  0.00000000E+00
  0.00000000E+00  0.00000000E+00  0.00000000E+00
  0.00000000E+00  0.00000000E+00  0.00000000E+00
  0.00000000E+00  0.00000000E+00  0.00000000E+00
  0.00000000E+00  0.00000000E+00  0.00000000E+00
  0.00000000E+00  0.00000000E+00  0.00000000E+00
  0.00000000E+00  0.00000000E+00  0.00000000E+00
  0.00000000E+00  0.00000000E+00  0.00000000E+00
  0.00000000E+00  0.00000000E+00  0.00000000E+00
  0.00000000E+00  0.00000000E+00  0.00000000E+00
  0.00000000E+00  0.00000000E+00  0.00000000E+00
  0.00000000E+00  0.00000000E+00  0.00000000E+00
  0.00000000E+00  0.00000000E+00  0.00000000E+00
  0.00000000E+00  0.00000000E+00  0.00000000E+00
  0.00000000E+00  0.00000000E+00  0.00000000E+00
  0.00000000E+00  0.00000000E+00  0.00000000E+00
  0.00000000E+00  0.00000000E+00  0.00000000E+00
  0.00000000E+00  0.00000000E+00  0.00000000E+00
  0.00000000E+00  0.00000000E+00  0.00000000E+00
  0.00000000E+00  0.00000000E+00  0.00000000E+00
  0.00000000E+00  0.00000000E+00  0.00000000E+00
  0.00000000E+00  0.00000000E+00  0.00000000E+00
  0.00000000E+00  0.00000000E+00  0.00000000E+00
  0.00000000E+00  0.00000000E+00  0.00000000E+00
  0.00000000E+00  0.00000000E+00  0.00000000E+00
  0.00000000E+00  0.00000000E+00  0.00000000E+00
  0.00000000E+00  0.00000000E+00  0.00000000E+00
  0.00000000E+00  0.00000000E+00  0.00000000E+00
  0.00000000E+00  0.00000000E+00  0.00000000E+00
  0.00000000E+00  0.00000000E+00  0.00000000E+00
  0.00000000E+00  0.00000000E+00  0.00000000E+00
  0.00000000E+00  0.00000000E+00  0.00000000E+00
  0.00000000E+00  0.00000000E+00  0.00000000E+00
  0.00000000E+00  0.00000000E+00  0.00000000E+00
  0.00000000E+00  0.00000000E+00  0.00000000E+00
  0.00000000E+00  0.00000000E+00  0.00000000E+00
  0.00000000E+00  0.00000000E+00  0.00000000E+00
  0.00000000E+00  0.00000000E+00  0.00000000E+00
  0.00000000E+00  0.00000000E+00  0.00000000E+00
  0.00000000E+00  0.00000000E+00  0.00000000E+00
  0.00000000E+00  0.00000000E+00  0.00000000E+00
  0.00000000E+00  0.00000000E+00  0.00000000E+00
  0.00000000E+00  0.00000000E+00  0.00000000E+00
  0.00000000E+00  0.00000000E+00  0.00000000E+00
  0.00000000E+00  0.00000000E+00  0.00000000E+00
  0.00000000E+00  0.00000000E+00  0.00000000E+00
  0.00000000E+00  0.00000000E+00  0.00000000E+00
  0.00000000E+00  0.00000000E+00  0.00000000E+00
  0.00000000E+00  0.00000000E+00  0.00000000E+00
  0.00000000E+00  0.00000000E+00  0.00000000E+00
  0.00000000E+00  0.00000000E+00  0.00000000E+00
  0.00000000E+00  0.00000000E+00  0.00000000E+00
  0.00000000E+00  0.00000000E+00  0.00000000E+00
  0.00000000E+00  0.00000000E+00  0.00000000E+00
  0.00000000E+00  0.00000000E+00  0.00000000E+00
  0.00000000E+00  0.00000000E+00  0.00000000E+00
  0.00000000E+00  0.00000000E+00  0.00000000E+00
  0.00000000E+00  0.00000000E+00  0.00000000E+00
  0.00000000E+00  0.00000000E+00  0.00000000E+00
  0.00000000E+00  0.00000000E+00  0.00000000E+00
  0.00000000E+00  0.00000000E+00  0.00000000E+00
  0.00000000E+00  0.00000000E+00  0.00000000E+00
  0.00000000E+00  0.00000000E+00  0.00000000E+00
  0.00000000E+00  0.00000000E+00  0.00000000E+00
  0.00000000E+00  0.00000000E+00  0.00000000E+00
  0.00000000E+00  0.00000000E+00  0.00000000E+00
  0.00000000E+00  0.00000000E+00  0.00000000E+00
  0.00000000E+00  0.00000000E+00  0.00000000E+00
  0.00000000E+00  0.00000000E+00  0.00000000E+00
  0.00000000E+00  0.00000000E+00  0.00000000E+00
  0.00000000E+00  0.00000000E+00  0.00000000E+00
  0.00000000E+00  0.00000000E+00  0.00000000E+00
  0.00000000E+00  0.00000000E+00  0.00000000E+00
  0.00000000E+00  0.00000000E+00  0.00000000E+00
  0.00000000E+00  0.00000000E+00  0.00000000E+00
  0.00000000E+00  0.00000000E+00  0.00000000E+00
  0.00000000E+00  0.00000000E+00  0.00000000E+00
  0.00000000E+00  0.00000000E+00  0.00000000E+00
  0.00000000E+00  0.00000000E+00  0.00000000E+00
