This file is generated by VASPKIT code  
    1.000000000000000     
    12.9960000000000004    0.0000000000000000    0.0000000000000000
     0.0000000000000000   11.2548661479999996    0.0000000000000000
     0.0000000000000000    0.0000000000000000   10.4097960000000000
   Zn   O 
    64    63
Direct
  0.0007548954533890  0.1661747633137522  0.4997338289992705
  0.0002497414659419  0.1666292408003563  0.9998895620716286
  0.0017448364447227  0.6667165920233363  0.4996797776784775
  0.0003569340586614  0.6667483732364639  0.9996054444077348
  0.0001464257200667  0.3328909530968054  0.2497672295849447
  0.0001054115911983  0.3330459732257593  0.7500024311453266
  0.0002718170707137  0.8331454563113831  0.2498136670173944
  0.0001878456368439  0.8332764267112448  0.7497839377016994
  0.1253524272880385  0.4172267775963390  0.5008318994837050
  0.1253585341248914  0.5826452356138703  0.2505441552955393
  0.1255623101036983  0.0829783769134159  0.7493810879739419
  0.1253918349585972  0.4171837554028135  0.9989501064203696
  0.1255868778233529  0.0828647204575618  0.2502690534842140
  0.1256587308095811  0.9165314762490104  0.9995158910672074
  0.1263733463184025  0.5842608528847824  0.7488024379678514
  0.1269865568819458  0.9150139948138548  0.4995047558492274
  0.2502489125825125  0.8315315318126123  0.7487973477739904
  0.2501182479775562  0.1675121787053615  0.9995511495279136
  0.2500006601510917  0.3338413516805193  0.2504913180964626
  0.2507191792483555  0.8327949208965154  0.2502886468885948
  0.2510155707591786  0.6660441958969280  0.0036866686184249
  0.2512363582325081  0.1693361787833087  0.4998614811718992
  0.2512572866909988  0.3344326161154579  0.7488310739101441
  0.2607122082140686  0.6594424115597357  0.4943541618000605
  0.3750043191508952  0.5832948798178456  0.7519700305128383
  0.3750022768616816  0.4317186384954388  0.4943811935684146
  0.3750040749651198  0.9169613872128980  0.5005981316485938
  0.3749926396218197  0.5832967696799679  0.2690901313685076
  0.3749973406376204  0.4180504156144981  0.0036451067197353
  0.3750011304060000  0.0831040809262111  0.2493216973751276
  0.3750012336591905  0.0831892324922778  0.7501113963557722
  0.3750028748135782  0.9163481825915732  0.9985402396000591
  0.4892925078436784  0.6594159250493646  0.4943377373464982
  0.4987356981164066  0.3344009033031595  0.7488229819511348
  0.4987581577475275  0.1693156807927537  0.4998542253426239
  0.4989818797286998  0.6660348297199769  0.0036668131043406
  0.4992955129038255  0.8327828177787339  0.2502822740469487
  0.4999990013714318  0.3338928442312590  0.2505171143591098
  0.4998888335199091  0.1674961898539490  0.9995560095035554
  0.4997701676605958  0.8315126453978161  0.7487600021061414
  0.6230144878305345  0.9149975469998595  0.4994936154226102
  0.6236242380080194  0.5842271543542807  0.7487710543254458
  0.6243305221529188  0.9165095348412984  0.9994714507120259
  0.6244229856913277  0.0828624237154727  0.2502388707711820
  0.6245984854718637  0.4171662409295901  0.9989087896650979
  0.6244562518832313  0.0829518758973919  0.7493781203942830
  0.6246425122133725  0.5826240744352124  0.2505065033691476
  0.6246325566829685  0.4172317568450172  0.5007972444871297
  0.7482677616635469  0.6666965687235764  0.4996450576415157
  0.7496442787289936  0.6667497171831055  0.9995801837837891
  0.7492109602689978  0.1661646691207770  0.4996976123442315
  0.7498907118579526  0.3330218341968614  0.7499893006217362
  0.7498419911063011  0.3328852857587903  0.2497647947703850
  0.7497326499032659  0.8331250121902593  0.2497731547040537
  0.7498316484955252  0.8332416599459535  0.7497367880116683
  0.7497457344221488  0.1666362947772574 -0.0000950558935416
  0.8749891887097789  0.4168551017305466  0.4996724895282551
  0.8750001519427796  0.4169903726188496  0.0000195773774199
  0.8749975844782688  0.9165537183985623  0.4996163558590457
  0.8749920829226411  0.9169701285780689  0.9997444633040279
  0.8749772673605180  0.0829330762078663  0.2499827346028752
  0.8749973700668017  0.0830756133155487  0.7496328629356737
  0.8750063775284326  0.5831988562172776  0.2501397950025140
  0.8750064962916032  0.5831353081449833  0.7493602842724683
  0.0003092773875640  0.1660573695802174  0.1907632108516980
  0.0005978465339943  0.6661862894262673  0.1906912305503875
  0.0004039883544600  0.6665044768314853  0.6903930130383794
  0.0006858696412206  0.3335128500131020  0.4406571845596688
  0.0001213471262631  0.3334329640856217  0.9407048349241937
  0.0006194148679790  0.8335496515585231  0.4404105993562314
  0.0001429918453913  0.8335711011863536  0.9405778780841687
  0.0002444562994377  0.1663664066132957  0.6904149504121876
  0.1250441748516809  0.4164880267195496  0.1899790474640075
  0.1251364790835673  0.4168817109387520  0.6911830654279311
  0.1254221884276727  0.0833491987398039  0.9403225786524078
  0.1255812989064374  0.9161118164134238  0.6902275187768330
  0.1258649085239184  0.9160191586532199  0.1905224603540394
  0.1261191766283098  0.5842903220467651  0.9401525190858682
  0.1267320659578848  0.0830575004207268  0.4410287998306008
  0.1287158154086681  0.5842152100533399  0.4413128184472284
  0.2501383837791429  0.8316991360379177  0.9400717953462500
  0.2501848487225341  0.1675801687343665  0.1905342010080913
  0.2503672663809842  0.1674326440604728  0.6904506577661815
  0.2511535744358791  0.3342745416384915  0.9401647759381853
  0.2517231740329332  0.6656082363440206  0.6853996379301649
  0.2519629594389488  0.8289667751465086  0.4410573889490473
  0.2525778211910406  0.3373412446027164  0.4412788068150631
  0.2528311773198238  0.6645358865616313  0.1948140456500040
  0.3749946435636036  0.5833486288501742  0.9407359432783365
  0.3749990717737196  0.0832787760109142  0.4400657494272845
  0.3750029185681020  0.4189746779918550  0.6854127384583848
  0.3750020290117979  0.4205268068298455  0.1948066927027853
  0.3750061810546468  0.9166188670409983  0.1895899159890576
  0.3750063873603513  0.9166331648341822  0.6909940195583877
  0.3749980517532667  0.0833360144354335  0.9406847885206846
  0.4971618897747081  0.6645222085482665  0.1947898047410408
  0.4974079810230559  0.3373199800605331  0.4412625152871530
  0.4980401648669943  0.8289542115487915  0.4410449807335411
  0.4982859293051235  0.6655909777545893  0.6853801814134836
  0.4988374657456041  0.3342595607270846  0.9401543609204012
  0.4996520788916129  0.1674018439110649  0.6904462913733556
  0.4998147711183087  0.1675724616576516  0.1905340580766088
  0.4998497111331663  0.8316800037627401  0.9400385581569523
  0.6212878203719189  0.5842195582751055  0.4412778327605093
  0.6232487949530739  0.0830287292670718  0.4410058639911005
  0.6238783940657572  0.5842835146150200  0.9401111064049106
  0.6241500534957494  0.9159968987041451  0.1904954852646243
  0.6244383189800131  0.9160904157265517  0.6902099381948078
  0.6245684859108902  0.0833315968967703  0.9403041976238424
  0.6248561290632754  0.4168505446115706  0.6911614720363386
  0.6249491341979027  0.4164745719481173  0.1899392798825840
  0.7495991945295790  0.6664754496112323  0.6903626107266274
  0.7493044484738050  0.3335178016908094  0.4406465182430395
  0.7494007887490051  0.6661598541898036  0.1906725918701064
  0.7493847686103616  0.8335282360923272  0.4404054372627227
  0.7498867106396006  0.3334315186324918  0.9406924082056047
  0.7496955683844025  0.1660630103062258  0.1907463133701717
  0.7497540626593233  0.1663495590014944  0.6904007897465396
  0.7498623448190705  0.8335686089500423  0.9405413592579728
  0.8750084172458465  0.4164326699833537  0.1907923666865012
  0.8749977224806649  0.4163258815770662  0.6902991505355124
  0.8749964405452880  0.9162242099356867  0.1904861179147197
  0.8750074014954431  0.9163809499444747  0.6902839069557692
  0.8749741968243160  0.0835884268421173  0.4406106946098697
  0.8749982557370761  0.0836378328635343  0.9404010488664039
  0.8750079900946751  0.5841397416733339  0.4410162862426599
  0.8749995900430079  0.5836263494253813  0.9403388031647461
 
  0.00000000E+00  0.00000000E+00  0.00000000E+00
  0.00000000E+00  0.00000000E+00  0.00000000E+00
  0.00000000E+00  0.00000000E+00  0.00000000E+00
  0.00000000E+00  0.00000000E+00  0.00000000E+00
  0.00000000E+00  0.00000000E+00  0.00000000E+00
  0.00000000E+00  0.00000000E+00  0.00000000E+00
  0.00000000E+00  0.00000000E+00  0.00000000E+00
  0.00000000E+00  0.00000000E+00  0.00000000E+00
  0.00000000E+00  0.00000000E+00  0.00000000E+00
  0.00000000E+00  0.00000000E+00  0.00000000E+00
  0.00000000E+00  0.00000000E+00  0.00000000E+00
  0.00000000E+00  0.00000000E+00  0.00000000E+00
  0.00000000E+00  0.00000000E+00  0.00000000E+00
  0.00000000E+00  0.00000000E+00  0.00000000E+00
  0.00000000E+00  0.00000000E+00  0.00000000E+00
  0.00000000E+00  0.00000000E+00  0.00000000E+00
  0.00000000E+00  0.00000000E+00  0.00000000E+00
  0.00000000E+00  0.00000000E+00  0.00000000E+00
  0.00000000E+00  0.00000000E+00  0.00000000E+00
  0.00000000E+00  0.00000000E+00  0.00000000E+00
  0.00000000E+00  0.00000000E+00  0.00000000E+00
  0.00000000E+00  0.00000000E+00  0.00000000E+00
  0.00000000E+00  0.00000000E+00  0.00000000E+00
  0.00000000E+00  0.00000000E+00  0.00000000E+00
  0.00000000E+00  0.00000000E+00  0.00000000E+00
  0.00000000E+00  0.00000000E+00  0.00000000E+00
  0.00000000E+00  0.00000000E+00  0.00000000E+00
  0.00000000E+00  0.00000000E+00  0.00000000E+00
  0.00000000E+00  0.00000000E+00  0.00000000E+00
  0.00000000E+00  0.00000000E+00  0.00000000E+00
  0.00000000E+00  0.00000000E+00  0.00000000E+00
  0.00000000E+00  0.00000000E+00  0.00000000E+00
  0.00000000E+00  0.00000000E+00  0.00000000E+00
  0.00000000E+00  0.00000000E+00  0.00000000E+00
  0.00000000E+00  0.00000000E+00  0.00000000E+00
  0.00000000E+00  0.00000000E+00  0.00000000E+00
  0.00000000E+00  0.00000000E+00  0.00000000E+00
  0.00000000E+00  0.00000000E+00  0.00000000E+00
  0.00000000E+00  0.00000000E+00  0.00000000E+00
  0.00000000E+00  0.00000000E+00  0.00000000E+00
  0.00000000E+00  0.00000000E+00  0.00000000E+00
  0.00000000E+00  0.00000000E+00  0.00000000E+00
  0.00000000E+00  0.00000000E+00  0.00000000E+00
  0.00000000E+00  0.00000000E+00  0.00000000E+00
  0.00000000E+00  0.00000000E+00  0.00000000E+00
  0.00000000E+00  0.00000000E+00  0.00000000E+00
  0.00000000E+00  0.00000000E+00  0.00000000E+00
  0.00000000E+00  0.00000000E+00  0.00000000E+00
  0.00000000E+00  0.00000000E+00  0.00000000E+00
  0.00000000E+00  0.00000000E+00  0.00000000E+00
  0.00000000E+00  0.00000000E+00  0.00000000E+00
  0.00000000E+00  0.00000000E+00  0.00000000E+00
  0.00000000E+00  0.00000000E+00  0.00000000E+00
  0.00000000E+00  0.00000000E+00  0.00000000E+00
  0.00000000E+00  0.00000000E+00  0.00000000E+00
  0.00000000E+00  0.00000000E+00  0.00000000E+00
  0.00000000E+00  0.00000000E+00  0.00000000E+00
  0.00000000E+00  0.00000000E+00  0.00000000E+00
  0.00000000E+00  0.00000000E+00  0.00000000E+00
  0.00000000E+00  0.00000000E+00  0.00000000E+00
  0.00000000E+00  0.00000000E+00  0.00000000E+00
  0.00000000E+00  0.00000000E+00  0.00000000E+00
  0.00000000E+00  0.00000000E+00  0.00000000E+00
  0.00000000E+00  0.00000000E+00  0.00000000E+00
  0.00000000E+00  0.00000000E+00  0.00000000E+00
  0.00000000E+00  0.00000000E+00  0.00000000E+00
  0.00000000E+00  0.00000000E+00  0.00000000E+00
  0.00000000E+00  0.00000000E+00  0.00000000E+00
  0.00000000E+00  0.00000000E+00  0.00000000E+00
  0.00000000E+00  0.00000000E+00  0.00000000E+00
  0.00000000E+00  0.00000000E+00  0.00000000E+00
  0.00000000E+00  0.00000000E+00  0.00000000E+00
  0.00000000E+00  0.00000000E+00  0.00000000E+00
  0.00000000E+00  0.00000000E+00  0.00000000E+00
  0.00000000E+00  0.00000000E+00  0.00000000E+00
  0.00000000E+00  0.00000000E+00  0.00000000E+00
  0.00000000E+00  0.00000000E+00  0.00000000E+00
  0.00000000E+00  0.00000000E+00  0.00000000E+00
  0.00000000E+00  0.00000000E+00  0.00000000E+00
  0.00000000E+00  0.00000000E+00  0.00000000E+00
  0.00000000E+00  0.00000000E+00  0.00000000E+00
  0.00000000E+00  0.00000000E+00  0.00000000E+00
  0.00000000E+00  0.00000000E+00  0.00000000E+00
  0.00000000E+00  0.00000000E+00  0.00000000E+00
  0.00000000E+00  0.00000000E+00  0.00000000E+00
  0.00000000E+00  0.00000000E+00  0.00000000E+00
  0.00000000E+00  0.00000000E+00  0.00000000E+00
  0.00000000E+00  0.00000000E+00  0.00000000E+00
  0.00000000E+00  0.00000000E+00  0.00000000E+00
  0.00000000E+00  0.00000000E+00  0.00000000E+00
  0.00000000E+00  0.00000000E+00  0.00000000E+00
  0.00000000E+00  0.00000000E+00  0.00000000E+00
  0.00000000E+00  0.00000000E+00  0.00000000E+00
  0.00000000E+00  0.00000000E+00  0.00000000E+00
  0.00000000E+00  0.00000000E+00  0.00000000E+00
  0.00000000E+00  0.00000000E+00  0.00000000E+00
  0.00000000E+00  0.00000000E+00  0.00000000E+00
  0.00000000E+00  0.00000000E+00  0.00000000E+00
  0.00000000E+00  0.00000000E+00  0.00000000E+00
  0.00000000E+00  0.00000000E+00  0.00000000E+00
  0.00000000E+00  0.00000000E+00  0.00000000E+00
  0.00000000E+00  0.00000000E+00  0.00000000E+00
  0.00000000E+00  0.00000000E+00  0.00000000E+00
  0.00000000E+00  0.00000000E+00  0.00000000E+00
  0.00000000E+00  0.00000000E+00  0.00000000E+00
  0.00000000E+00  0.00000000E+00  0.00000000E+00
  0.00000000E+00  0.00000000E+00  0.00000000E+00
  0.00000000E+00  0.00000000E+00  0.00000000E+00
  0.00000000E+00  0.00000000E+00  0.00000000E+00
  0.00000000E+00  0.00000000E+00  0.00000000E+00
  0.00000000E+00  0.00000000E+00  0.00000000E+00
  0.00000000E+00  0.00000000E+00  0.00000000E+00
  0.00000000E+00  0.00000000E+00  0.00000000E+00
  0.00000000E+00  0.00000000E+00  0.00000000E+00
  0.00000000E+00  0.00000000E+00  0.00000000E+00
  0.00000000E+00  0.00000000E+00  0.00000000E+00
  0.00000000E+00  0.00000000E+00  0.00000000E+00
  0.00000000E+00  0.00000000E+00  0.00000000E+00
  0.00000000E+00  0.00000000E+00  0.00000000E+00
  0.00000000E+00  0.00000000E+00  0.00000000E+00
  0.00000000E+00  0.00000000E+00  0.00000000E+00
  0.00000000E+00  0.00000000E+00  0.00000000E+00
  0.00000000E+00  0.00000000E+00  0.00000000E+00
  0.00000000E+00  0.00000000E+00  0.00000000E+00
  0.00000000E+00  0.00000000E+00  0.00000000E+00
  0.00000000E+00  0.00000000E+00  0.00000000E+00
  0.00000000E+00  0.00000000E+00  0.00000000E+00
