This file is generated by VASPKIT code  
    1.000000000000000     
     9.7469999999999999    0.0000000000000000    0.0000000000000000
     0.0000000000000000   11.2548661479999996    0.0000000000000000
     0.0000000000000000    0.0000000000000000   10.4097960000000000
   Zn   O 
    47    48
Direct
  0.1657462604831176  0.0822136644607435  0.2493316257846199
  0.1661914925158122  0.0822344055713592  0.7510555200657029
  0.1672542886545900  0.5834641513579029  0.2503566086718525
  0.1652669491370683  0.5849454171474191  0.7526784335623569
  0.5009205395168842  0.0822136644607435  0.2493316257846199
  0.5004753074841894  0.0822344055713592  0.7510555200657029
  0.4994125113454115  0.5834641513579029  0.2503566086718525
  0.5013998508629330  0.5849454171474191  0.7526784335623569
  0.8333334000000008  0.0825909176329394  0.2440659752991412
  0.8333334000000008  0.0780250205172502  0.7519214500552710
  0.8333334000000008  0.5831766635341756  0.2487608209332631
  0.8333334000000008  0.5829750469584142  0.7514967893768812
  0.0000961494078061  0.3331328402731911  0.2504959020736507
 -0.0000918880689863  0.3308351637077078  0.7524186819318255
  0.9991896597485084  0.8329308146493468  0.2441442689368211
  0.9955591601300654  0.8352177033124122  0.7517092738355914
  0.3333334000000008  0.3323051448216871  0.2522164899763250
  0.3333334000000008  0.3335079060952834  0.7521074967804221
  0.3333334000000008  0.8334980307213081  0.2482413297171009
  0.3333334000000008  0.8347207143624678  0.7529135294158260
  0.6665706505921952  0.3331328402731911  0.2504959020736507
  0.6667586880689946  0.3308351637077078  0.7524186819318255
  0.6674771402514932  0.8329308146493468  0.2441442689368211
  0.6711076398699362  0.8352177033124122  0.7517092738355914
 -0.0002049291275803  0.1668635276531728  0.4999465277224057
 -0.0020048007163284  0.1639986406386068 -0.0012427633925302
 -0.0000540918600037  0.6671942893715415  0.4997257080918273
  0.9980808399170169  0.6697927695772540 -0.0016856528700189
  0.3333332166666665  0.1662055295682036  0.5016754312330383
  0.3333332166666665  0.1661909105352504  0.0015686270944316
  0.3333332166666665  0.6681957847359602  0.5014844377963680
  0.3333332166666665  0.6700951682999564  0.9980987243248809
  0.6668713624609128  0.1668635276531728  0.4999465277224057
  0.6686712340496616  0.1639986406386068 -0.0012427633925302
  0.6667205251933367  0.6671942893715415  0.4997257080918273
  0.6685855934163161  0.6697927695772540 -0.0016856528700189
  0.1667242772495111  0.4173494064538877  0.5022829755689313
  0.1675168531939455  0.4174396809413082  0.0018447014358333
  0.1664308789706015  0.9168073605079818  0.4997299162066879
  0.1610854408456681  0.9164086821546145 -0.0018814243532805
  0.4999421560838219  0.4173494064538877  0.5022829755689313
  0.4991495801393874  0.4174396809413082  0.0018447014358333
  0.5002355543627316  0.9168073605079818  0.4997299162066879
  0.5055809924876651  0.9164086821546145 -0.0018814243532805
  0.8333332166666665  0.4169561024835157  0.5017027791615677
  0.8333332166666665  0.4140182680034393 -0.0006128233331556
  0.8333332166666665  0.9171669480706003  0.4851909443926629
  0.1673205542909219  0.0841419350548971  0.4399611408398992
  0.1681636811505384  0.0847070180479033  0.9409867521491244
  0.1679109615016900  0.5829238260065137  0.4410815631144501
  0.1686124898033122  0.5817734082092377  0.9420732681074914
  0.4993462457090797  0.0841419350548971  0.4399611408398992
  0.4985031188494630  0.0847070180479033  0.9409867521491244
  0.4987558384983118  0.5829238260065137  0.4410815631144501
  0.4980543101966894  0.5817734082092377  0.9420732681074914
  0.8333334000000008  0.0884089051459159  0.4394271452486365
  0.8333334000000008  0.1019368802238458  0.9321113044661754
  0.8333334000000008  0.5824816587661575  0.4397513749787134
  0.8333334000000008  0.5802952962542237  0.9414031291637835
  0.0006393548925918  0.3347502649944497  0.4411938048794594
  0.0028753141026371  0.3353198633777547  0.9419824715128589
  0.0043039933328192  0.8311498228794251  0.4395560570622138
  0.0142627419108291  0.8252245815359867  0.9327715347111414
  0.3333334000000008  0.3333459068063157  0.4427321268823410
  0.3333334000000008  0.3327940339358432  0.9422706810150885
  0.3333334000000008  0.8333449942567024  0.4393035573993180
  0.3333334000000008  0.8360088160490523  0.9419445269741884
  0.6660274451074030  0.3347502649944497  0.4411938048794594
  0.6637914858973644  0.3353198633777547  0.9419824715128589
  0.6623628066671826  0.8311498228794251  0.4395560570622138
  0.6524040580891726  0.8252245815359867  0.9327715347111414
  0.0016532057921931  0.1682754376742776  0.1905410323859778
  0.0017680607627363  0.1664798610285578  0.6888839572756843
  0.0008613039916401  0.6639733889839958  0.1903724179483427
  0.9991381899332515  0.6648614671145264  0.6888444555481519
  0.3333332166666665  0.1667149681307508  0.1922076424337834
  0.3333332166666665  0.1673229018340667  0.6915317193759306
  0.3333332166666665  0.6664299910020172  0.1903651153673558
  0.3333332166666665  0.6670020566963459  0.6916294219814275
  0.6650132275411399  0.1682754376742776  0.1905410323859778
  0.6648983725705967  0.1664798610285578  0.6888839572756843
  0.6658051293416933  0.6639733889839958  0.1903724179483427
  0.6675282434000814  0.6648614671145264  0.6888444555481519
  0.1677627115841570  0.4162673321085721  0.1928416930655673
  0.1666207359294792  0.4169588789086290  0.6921581833980394
  0.1678663456163091  0.9169273439028772  0.1900843736743201
  0.1675893263896332  0.9173140263045392  0.6887180340408647
  0.4989037217491760  0.4162673321085721  0.1928416930655673
  0.5000456974038537  0.4169588789086290  0.6921581833980394
  0.4988000877170238  0.9169273439028772  0.1900843736743201
  0.4990771069436997  0.9173140263045392  0.6887180340408647
  0.8333332166666665  0.4156814818359053  0.1910342080117006
  0.8333332166666665  0.4151431514303544  0.6916547357866218
  0.8333332166666665  0.9164871154277840  0.2210522279552089
  0.8333332166666665  0.9165494630433367  0.6788511767639344
 
  0.00000000E+00  0.00000000E+00  0.00000000E+00
  0.00000000E+00  0.00000000E+00  0.00000000E+00
  0.00000000E+00  0.00000000E+00  0.00000000E+00
  0.00000000E+00  0.00000000E+00  0.00000000E+00
  0.00000000E+00  0.00000000E+00  0.00000000E+00
  0.00000000E+00  0.00000000E+00  0.00000000E+00
  0.00000000E+00  0.00000000E+00  0.00000000E+00
  0.00000000E+00  0.00000000E+00  0.00000000E+00
  0.00000000E+00  0.00000000E+00  0.00000000E+00
  0.00000000E+00  0.00000000E+00  0.00000000E+00
  0.00000000E+00  0.00000000E+00  0.00000000E+00
  0.00000000E+00  0.00000000E+00  0.00000000E+00
  0.00000000E+00  0.00000000E+00  0.00000000E+00
  0.00000000E+00  0.00000000E+00  0.00000000E+00
  0.00000000E+00  0.00000000E+00  0.00000000E+00
  0.00000000E+00  0.00000000E+00  0.00000000E+00
  0.00000000E+00  0.00000000E+00  0.00000000E+00
  0.00000000E+00  0.00000000E+00  0.00000000E+00
  0.00000000E+00  0.00000000E+00  0.00000000E+00
  0.00000000E+00  0.00000000E+00  0.00000000E+00
  0.00000000E+00  0.00000000E+00  0.00000000E+00
  0.00000000E+00  0.00000000E+00  0.00000000E+00
  0.00000000E+00  0.00000000E+00  0.00000000E+00
  0.00000000E+00  0.00000000E+00  0.00000000E+00
  0.00000000E+00  0.00000000E+00  0.00000000E+00
  0.00000000E+00  0.00000000E+00  0.00000000E+00
  0.00000000E+00  0.00000000E+00  0.00000000E+00
  0.00000000E+00  0.00000000E+00  0.00000000E+00
  0.00000000E+00  0.00000000E+00  0.00000000E+00
  0.00000000E+00  0.00000000E+00  0.00000000E+00
  0.00000000E+00  0.00000000E+00  0.00000000E+00
  0.00000000E+00  0.00000000E+00  0.00000000E+00
  0.00000000E+00  0.00000000E+00  0.00000000E+00
  0.00000000E+00  0.00000000E+00  0.00000000E+00
  0.00000000E+00  0.00000000E+00  0.00000000E+00
  0.00000000E+00  0.00000000E+00  0.00000000E+00
  0.00000000E+00  0.00000000E+00  0.00000000E+00
  0.00000000E+00  0.00000000E+00  0.00000000E+00
  0.00000000E+00  0.00000000E+00  0.00000000E+00
  0.00000000E+00  0.00000000E+00  0.00000000E+00
  0.00000000E+00  0.00000000E+00  0.00000000E+00
  0.00000000E+00  0.00000000E+00  0.00000000E+00
  0.00000000E+00  0.00000000E+00  0.00000000E+00
  0.00000000E+00  0.00000000E+00  0.00000000E+00
  0.00000000E+00  0.00000000E+00  0.00000000E+00
  0.00000000E+00  0.00000000E+00  0.00000000E+00
  0.00000000E+00  0.00000000E+00  0.00000000E+00
  0.00000000E+00  0.00000000E+00  0.00000000E+00
  0.00000000E+00  0.00000000E+00  0.00000000E+00
  0.00000000E+00  0.00000000E+00  0.00000000E+00
  0.00000000E+00  0.00000000E+00  0.00000000E+00
  0.00000000E+00  0.00000000E+00  0.00000000E+00
  0.00000000E+00  0.00000000E+00  0.00000000E+00
  0.00000000E+00  0.00000000E+00  0.00000000E+00
  0.00000000E+00  0.00000000E+00  0.00000000E+00
  0.00000000E+00  0.00000000E+00  0.00000000E+00
  0.00000000E+00  0.00000000E+00  0.00000000E+00
  0.00000000E+00  0.00000000E+00  0.00000000E+00
  0.00000000E+00  0.00000000E+00  0.00000000E+00
  0.00000000E+00  0.00000000E+00  0.00000000E+00
  0.00000000E+00  0.00000000E+00  0.00000000E+00
  0.00000000E+00  0.00000000E+00  0.00000000E+00
  0.00000000E+00  0.00000000E+00  0.00000000E+00
  0.00000000E+00  0.00000000E+00  0.00000000E+00
  0.00000000E+00  0.00000000E+00  0.00000000E+00
  0.00000000E+00  0.00000000E+00  0.00000000E+00
  0.00000000E+00  0.00000000E+00  0.00000000E+00
  0.00000000E+00  0.00000000E+00  0.00000000E+00
  0.00000000E+00  0.00000000E+00  0.00000000E+00
  0.00000000E+00  0.00000000E+00  0.00000000E+00
  0.00000000E+00  0.00000000E+00  0.00000000E+00
  0.00000000E+00  0.00000000E+00  0.00000000E+00
  0.00000000E+00  0.00000000E+00  0.00000000E+00
  0.00000000E+00  0.00000000E+00  0.00000000E+00
  0.00000000E+00  0.00000000E+00  0.00000000E+00
  0.00000000E+00  0.00000000E+00  0.00000000E+00
  0.00000000E+00  0.00000000E+00  0.00000000E+00
  0.00000000E+00  0.00000000E+00  0.00000000E+00
  0.00000000E+00  0.00000000E+00  0.00000000E+00
  0.00000000E+00  0.00000000E+00  0.00000000E+00
  0.00000000E+00  0.00000000E+00  0.00000000E+00
  0.00000000E+00  0.00000000E+00  0.00000000E+00
  0.00000000E+00  0.00000000E+00  0.00000000E+00
  0.00000000E+00  0.00000000E+00  0.00000000E+00
  0.00000000E+00  0.00000000E+00  0.00000000E+00
  0.00000000E+00  0.00000000E+00  0.00000000E+00
  0.00000000E+00  0.00000000E+00  0.00000000E+00
  0.00000000E+00  0.00000000E+00  0.00000000E+00
  0.00000000E+00  0.00000000E+00  0.00000000E+00
  0.00000000E+00  0.00000000E+00  0.00000000E+00
  0.00000000E+00  0.00000000E+00  0.00000000E+00
  0.00000000E+00  0.00000000E+00  0.00000000E+00
  0.00000000E+00  0.00000000E+00  0.00000000E+00
  0.00000000E+00  0.00000000E+00  0.00000000E+00
  0.00000000E+00  0.00000000E+00  0.00000000E+00
