This file is generated by VASPKIT code  
1.0
       12.9960002899         0.0000000000         0.0000000000
        0.0000000000        16.8822994232         0.0000000000
        0.0000000000         0.0000000000        15.6146936417
   Zn    O
   143   144
Direct
     0.850070059         0.431898147         0.432719529
     0.850363016         0.431696624         0.099032879
     0.849684656         0.099735916         0.431619078
     0.848548055         0.100455269         0.099890307
     0.100000001         0.432510763         0.433390856
     0.100000001         0.432251662         0.099588312
     0.100000001         0.099509858         0.432805657
     0.100000001         0.099995837         0.099997245
     0.349929988         0.431898147         0.432719529
     0.349637061         0.431696624         0.099032879
     0.350315481         0.099735916         0.431619078
     0.351452023         0.100455269         0.099890307
     0.600000083         0.432417005         0.432330847
     0.600000083         0.428856462         0.090891756
     0.600000083         0.100378655         0.430730581
     0.600000083         0.099738032         0.098418035
     0.724995613         0.600106716         0.433482319
     0.725071311         0.599217057         0.099349931
     0.723334491         0.266878396         0.426782489
     0.722991586         0.266202360         0.099608377
     0.975026906         0.599399328         0.433444083
     0.974938393         0.599612117         0.100113586
     0.974913418         0.265693605         0.432118773
     0.973644853         0.266428292         0.099722773
     0.224973172         0.599399328         0.433444083
     0.225061744         0.599612117         0.100113586
     0.225086734         0.265693605         0.432118773
     0.226355225         0.266428292         0.099722773
     0.475004464         0.600106716         0.433482319
     0.474928796         0.599217057         0.099349931
     0.476665586         0.266878396         0.426782489
     0.477008581         0.266202360         0.099608377
     0.725786030         0.488723516         0.599066317
     0.731053233         0.488680631         0.268274665
     0.724968076         0.155257881         0.597196102
     0.722974539         0.158277810         0.263849169
     0.975006878         0.488346606         0.600029230
     0.975932062         0.488336474         0.266683817
     0.974757433         0.155367121         0.599444449
     0.973728538         0.155688554         0.265025496
     0.224993080         0.488346606         0.600029230
     0.224067777         0.488336474         0.266683817
     0.225242406         0.155367121         0.599444449
     0.226271346         0.155688554         0.265025496
     0.474213809         0.488723516         0.599066317
     0.468946666         0.488680631         0.268274665
     0.475031763         0.155257881         0.597196102
     0.477025300         0.158277810         0.263849169
     0.850344896         0.655665040         0.599979520
     0.850065231         0.655365288         0.266398937
     0.849386334         0.321041912         0.597747624
     0.847566187         0.320443034         0.264853477
     0.100000001         0.655326247         0.600066364
     0.100000001         0.655643582         0.266486526
     0.100000001         0.321612954         0.599797666
     0.100000001         0.321785927         0.266600519
     0.349654913         0.655665040         0.599979520
     0.349934638         0.655365288         0.266398937
     0.350613505         0.321041912         0.597747624
     0.352433652         0.320443034         0.264853477
     0.599999964         0.655586123         0.599454761
     0.599999964         0.655466437         0.266201705
     0.599999964         0.320488811         0.590005159
0.975000024   0.155599996   0.93333298
0.975000024   0.488933325   0.93333298
0.975000024   0.822266638   0.266666323
0.975000024   0.822266638   0.599999666
0.975000024   0.822266638   0.93333298
0.975000143   0.266711056   0.766666353
0.975000143   0.60004437   0.766666353
0.975000143   0.933377683   0.099999681
0.975000143   0.933377683   0.433333009
0.975000143   0.933377683   0.766666353
0.099999994   0.322266668   0.93333298
0.099999994   0.655600011   0.93333298
0.099999994   0.988933325   0.266666323
0.099999994   0.988933325   0.599999666
0.099999994   0.988933325   0.93333298
0.100000143   0.100044385   0.766666353
0.100000143   0.433377713   0.766666353
0.100000143   0.766711056   0.099999681
0.100000143   0.766711056   0.433333009
0.100000143   0.766711056   0.766666353
0.224999994   0.155599996   0.93333298
0.224999994   0.488933325   0.93333298
0.224999994   0.822266638   0.266666323
0.224999994   0.822266638   0.599999666
0.224999994   0.822266638   0.93333298
0.225000143   0.266711056   0.766666353
0.225000143   0.60004437   0.766666353
0.225000143   0.933377683   0.099999681
0.225000143   0.933377683   0.433333009
0.225000143   0.933377683   0.766666353
0.349999994   0.322266668   0.93333298
0.349999994   0.655600011   0.93333298
0.349999994   0.988933325   0.266666323
0.349999994   0.988933325   0.599999666
0.349999994   0.988933325   0.93333298
0.350000143   0.100044385   0.766666353
0.350000143   0.433377713   0.766666353
0.350000143   0.766711056   0.099999681
0.350000143   0.766711056   0.433333009
0.350000143   0.766711056   0.766666353
0.475000024   0.155599996   0.93333298
0.475000024   0.488933325   0.93333298
0.475000024   0.822266638   0.266666323
0.475000024   0.822266638   0.599999666
0.475000024   0.822266638   0.93333298
0.475000143   0.266711056   0.766666353
0.475000143   0.60004437   0.766666353
0.475000143   0.933377683   0.099999681
0.475000143   0.933377683   0.433333009
0.475000143   0.933377683   0.766666353
0.600000024   0.322266668   0.93333298
0.600000024   0.655600011   0.93333298
0.600000024   0.988933325   0.266666323
0.600000024   0.988933325   0.599999666
0.600000024   0.988933325   0.93333298
0.600000143   0.100044385   0.766666353
0.600000143   0.433377713   0.766666353
0.600000143   0.766711056   0.099999681
0.600000143   0.766711056   0.433333009
0.600000143   0.766711056   0.766666353
0.725000024   0.155599996   0.93333298
0.725000024   0.488933325   0.93333298
0.725000024   0.822266638   0.266666323
0.725000024   0.822266638   0.599999666
0.725000024   0.822266638   0.93333298
0.725000143   0.266711056   0.766666353
0.725000143   0.60004437   0.766666353
0.725000143   0.933377683   0.099999681
0.725000143   0.933377683   0.433333009
0.725000143   0.933377683   0.766666353
0.850000024   0.322266668   0.93333298
0.850000024   0.655600011   0.93333298
0.850000024   0.988933325   0.266666323
0.850000024   0.988933325   0.599999666
0.850000024   0.988933325   0.93333298
0.850000143   0.100044385   0.766666353
0.850000143   0.433377713   0.766666353
0.850000143   0.766711056   0.099999681
0.850000143   0.766711056   0.433333009
0.850000143   0.766711056   0.766666353
     0.850503385         0.433210284         0.559531569
     0.851686716         0.433087438         0.226097211
     0.850934803         0.099056982         0.558779478
     0.850054622         0.098110832         0.226379380
     0.100000001         0.432992160         0.560325086
     0.100000001         0.433027655         0.226513609
     0.100000001         0.099453434         0.559940457
     0.100000001         0.099560484         0.226775795
     0.349496692         0.433210284         0.559531569
     0.348313421         0.433087438         0.226097211
     0.349065334         0.099056982         0.558779478
     0.349945456         0.098110832         0.226379380
     0.600000083         0.435372531         0.561380625
     0.600000083         0.446813762         0.218855366
     0.600000083         0.098847494         0.557909787
     0.600000083         0.098029926         0.225298911
     0.725482345         0.600035012         0.560290456
     0.724836588         0.598551989         0.226676852
     0.727482378         0.264922440         0.557058752
     0.734667182         0.262807280         0.220896631
     0.975195348         0.599464297         0.560429156
     0.975256562         0.599358141         0.227037013
     0.975845098         0.266018063         0.559183478
     0.976869822         0.266438663         0.226198897
     0.224804744         0.599464297         0.560429156
     0.224743515         0.599358141         0.227037013
     0.224154979         0.266018063         0.559183478
     0.223130316         0.266438663         0.226198897
     0.474517792         0.600035012         0.560290456
     0.475163549         0.598551989         0.226676852
     0.472517759         0.264922440         0.557058752
     0.465332955         0.262807280         0.220896631
     0.725666940         0.489231884         0.393401742
     0.725375712         0.488100201         0.059957180
     0.725527823         0.154019222         0.391524523
     0.724531233         0.153943896         0.057017837
     0.975226581         0.488482893         0.393631607
     0.975250304         0.488622874         0.060229853
     0.975375056         0.154642850         0.392531157
     0.974783719         0.154939175         0.059757940
     0.224773258         0.488482893         0.393631607
     0.224749476         0.488622874         0.060229853
     0.224624738         0.154642850         0.392531157
     0.225216120         0.154939175         0.059757940
     0.474332899         0.489231884         0.393401742
     0.474624127         0.488100201         0.059957180
     0.474472016         0.154019222         0.391524523
     0.475468606         0.153943896         0.057017837
     0.850323558         0.654547811         0.393284976
     0.850024343         0.654988110         0.060258619
     0.851855159         0.322008312         0.392297417
     0.850463986         0.322074890         0.057452671
     0.100000001         0.654783487         0.393610179
     0.100000001         0.655184507         0.060363684
     0.100000001         0.321923316         0.393610954
     0.100000001         0.321522415         0.059830301
     0.349676281         0.654547811         0.393284976
     0.349975437         0.654988110         0.060258619
     0.348144680         0.322008312         0.392297417
     0.349535912         0.322074890         0.057452671
     0.599999964         0.654640019         0.393049777
     0.599999964         0.654198825         0.059755240
     0.599999964         0.323437810         0.406216174
     0.599999964         0.320513666         0.052529093
0.975000024   0.155599996   0.727031946
0.975000024   0.488933325   0.727031946
0.975000024   0.822266638   0.060365245
0.975000024   0.822266638   0.393698543
0.975000024   0.822266638   0.727031946
0.975000143   0.266711056   0.893698573
0.975000143   0.60004437   0.893698573
0.975000143   0.933377683   0.227031901
0.975000143   0.933377683   0.56036526
0.975000143   0.933377683   0.893698573
0.099999994   0.322266668   0.727031946
0.099999994   0.655600011   0.727031946
0.099999994   0.988933325   0.060365245
0.099999994   0.988933325   0.393698543
0.099999994   0.988933325   0.727031946
0.100000143   0.100044385   0.893698573
0.100000143   0.433377713   0.893698573
0.100000143   0.766711056   0.227031901
0.100000143   0.766711056   0.56036526
0.100000143   0.766711056   0.893698573
0.224999994   0.155599996   0.727031946
0.224999994   0.488933325   0.727031946
0.224999994   0.822266638   0.060365245
0.224999994   0.822266638   0.393698543
0.224999994   0.822266638   0.727031946
0.225000143   0.266711056   0.893698573
0.225000143   0.60004437   0.893698573
0.225000143   0.933377683   0.227031901
0.225000143   0.933377683   0.56036526
0.225000143   0.933377683   0.893698573
0.349999994   0.322266668   0.727031946
0.349999994   0.655600011   0.727031946
0.349999994   0.988933325   0.060365245
0.349999994   0.988933325   0.393698543
0.349999994   0.988933325   0.727031946
0.350000143   0.100044385   0.893698573
0.350000143   0.433377713   0.893698573
0.350000143   0.766711056   0.227031901
0.350000143   0.766711056   0.56036526
0.350000143   0.766711056   0.893698573
0.475000024   0.155599996   0.727031946
0.475000024   0.488933325   0.727031946
0.475000024   0.822266638   0.060365245
0.475000024   0.822266638   0.393698543
0.475000024   0.822266638   0.727031946
0.475000143   0.266711056   0.893698573
0.475000143   0.60004437   0.893698573
0.475000143   0.933377683   0.227031901
0.475000143   0.933377683   0.56036526
0.475000143   0.933377683   0.893698573
0.600000024   0.322266668   0.727031946
0.600000024   0.655600011   0.727031946
0.600000024   0.988933325   0.060365245
0.600000024   0.988933325   0.393698543
0.600000024   0.988933325   0.727031946
0.600000143   0.100044385   0.893698573
0.600000143   0.433377713   0.893698573
0.600000143   0.766711056   0.227031901
0.600000143   0.766711056   0.56036526
0.600000143   0.766711056   0.893698573
0.725000024   0.155599996   0.727031946
0.725000024   0.488933325   0.727031946
0.725000024   0.822266638   0.060365245
0.725000024   0.822266638   0.393698543
0.725000024   0.822266638   0.727031946
0.725000143   0.266711056   0.893698573
0.725000143   0.60004437   0.893698573
0.725000143   0.933377683   0.227031901
0.725000143   0.933377683   0.56036526
0.725000143   0.933377683   0.893698573
0.850000024   0.322266668   0.727031946
0.850000024   0.655600011   0.727031946
0.850000024   0.988933325   0.060365245
0.850000024   0.988933325   0.393698543
0.850000024   0.988933325   0.727031946
0.850000143   0.100044385   0.893698573
0.850000143   0.433377713   0.893698573
0.850000143   0.766711056   0.227031901
0.850000143   0.766711056   0.56036526
0.850000143   0.766711056   0.893698573