This file is generated by VASPKIT code  
    1.000000000000000     
    12.9960000000000004    0.0000000000000000    0.0000000000000000
     0.0000000000000000   11.2548661479999996    0.0000000000000000
     0.0000000000000000    0.0000000000000000   10.4097960000000000
   Zn   O 
    63    64
Direct
  0.1249430707118790  0.0825810623659819  0.2512091000886159
  0.1256168974770090  0.0825291388385452  0.7498346933573502
  0.1250635823642909  0.5832261759722145  0.2500947980588819
  0.1242821749597809  0.5836818865431612  0.7503779008561935
  0.3750000499999970  0.0827666934866898  0.2513096206936822
  0.3750000499999970  0.0828596100694910  0.7509190227110165
  0.3750000499999970  0.5830838324137489  0.2509761522170493
  0.3750000499999970  0.5832426906483832  0.7507608769219658
  0.6250570292881150  0.0825810623659819  0.2512091000886159
  0.6243832025229850  0.0825291388385452  0.7498346933573502
  0.6249365176357031  0.5832261759722145  0.2500947980588819
  0.6257179250402134  0.5836818865431612  0.7503779008561935
  0.8750000499999970  0.0818715245697561  0.2491677538359482
  0.8750000499999970  0.0794282423702839  0.7385377356119990
  0.8750000499999970  0.5844067703895277  0.2491245265403492
  0.8750000499999970  0.5829662064127561  0.7488993669243982
  0.9999180137367459  0.3342217381982166  0.2517538236605077
  0.0000522618808532  0.3328974686624803  0.7500839631589855
  0.9979794738303127  0.8346078287788218  0.2450487140045538
  0.9985419839789955  0.8336390651418810  0.7454569256274653
  0.2500531925698226  0.3330558279457207  0.2512685644380140
  0.2500557605627164  0.3332465834030174  0.7511346305386368
  0.2499925328293955  0.8326844605290943  0.2505320020168824
  0.2494360035926349  0.8331581311447495  0.7501348789153396
  0.4999469074301714  0.3330558279457207  0.2512685644380140
  0.4999443394372848  0.3332465834030174  0.7511346305386368
  0.5000075671706056  0.8326844605290943  0.2505320020168824
  0.5005640964073592  0.8331581311447495  0.7501348789153396
  0.7500820862632481  0.3342217381982166  0.2517538236605077
  0.7499478381191409  0.3328974686624803  0.7500839631589855
  0.7520206261696813  0.8346078287788218  0.2450487140045538
  0.7514581160209985  0.8336390651418810  0.7454569256274653
  0.0006892968053833  0.1673580207915819  0.4996443653695621
  0.0054661769695912  0.1680903457547985  0.0040118049151658
  0.0001766483512853  0.6665572176740965  0.4979145932369990
  0.9985351040348859  0.6668498052149161  0.9999811419372832
  0.2502682875447491  0.1669249400821116  0.5010415726106958
  0.2509565238442661  0.1669310458151401  0.0014891351247641
  0.2499593308362406  0.6669301546946045  0.5005868294132725
  0.2495611929514680  0.6666533517460067  0.0002221197079137
  0.4997315374552613  0.1669249400821116  0.5010415726106958
  0.4990433011557372  0.1669310458151401  0.0014891351247641
  0.5000404941637622  0.6669301546946045  0.5005868294132725
  0.5004386320485352  0.6666533517460067  0.0002221197079137
  0.7493105281946129  0.1673580207915819  0.4996443653695621
  0.7445336480304121  0.1680903457547985  0.0040118049151658
  0.7498231766487180  0.6665572176740965  0.4979145932369990
  0.7514647209651174  0.6668498052149161  0.9999811419372832
  0.1254385906623128  0.4171659730412429  0.5013066263022241
  0.1252259460769095  0.4170828490499688  0.0010344166315406
  0.1250711068624497  0.9163711555086279  0.4985633318451975
  0.1242381018949033  0.9171035198023672  0.0011722198255342
  0.3749999125000016  0.4170972312536491  0.5012625787686814
  0.3749999125000016  0.4171502042914739  0.0012028722377977
  0.3749999125000016  0.9167541706673105  0.5011754150673795
  0.3749999125000016  0.9166557706860629  0.0012241536613828
  0.6245612343376906  0.4171659730412429  0.5013066263022241
  0.6247738789230934  0.4170828490499688  0.0010344166315406
  0.6249287181375538  0.9163711555086279  0.4985633318451975
  0.6257617231051001  0.9171035198023672  0.0011722198255342
  0.8749999125000016  0.4171701127802337  0.5004570234278276
  0.8749999125000016  0.4167140579297027  0.0011937769426353
  0.8749999125000016  0.9158585190012756  0.4873880270761858
  0.1255309435675401  0.0837235761035728  0.4412949287563990
  0.1260632703307465  0.0832848838622269  0.9407249850242607
  0.1257261809664811  0.5828391505742374  0.4405049215041786
  0.1246196176244396  0.5828378677396276  0.9409695643142443
  0.3750000499999970  0.0833469167015792  0.4416831268640208
  0.3750000499999970  0.0829996007272271  0.9413753921538586
  0.3750000499999970  0.5834148378095136  0.4414304449573265
  0.3750000499999970  0.5836214347849377  0.9412862168193782
  0.6244691564324543  0.0837235761035728  0.4412949287563990
  0.6239368296692477  0.0832848838622269  0.9407249850242607
  0.6242739190335128  0.5828391505742374  0.4405049215041786
  0.6253804823755547  0.5828378677396276  0.9409695643142443
  0.8750000499999970  0.0866062785895139  0.4429937851261698
  0.8750000499999970  0.1028429949551608  0.9304483384988134
  0.8750000499999970  0.5828858767329163  0.4395468063497532
  0.8750000499999970  0.5818655193921813  0.9398347694290834
  0.0004285916492108  0.3341909315251855  0.4418718941447750
  0.9999086235463325  0.3326207323964069  0.9411539036045723
  0.0022059947133428  0.8318823717501972  0.4394640598687189
  0.0098127453154220  0.8268196323870498  0.9316502046275302
  0.2501929772513449  0.3333710146112522  0.4417646336724913
  0.2500786141771343  0.3333471814756380  0.9417558191706732
  0.2506909095525386  0.8332271418121947  0.4409309637782002
  0.2500070806572054  0.8335958259935978  0.9410328617433806
  0.4998071227486492  0.3333710146112522  0.4417646336724913
  0.4999214858228668  0.3333471814756380  0.9417558191706732
  0.4993091904474554  0.8332271418121947  0.4409309637782002
  0.4999930193427815  0.8335958259935978  0.9410328617433806
  0.7495715083507835  0.3341909315251855  0.4418718941447750
  0.7500914764536616  0.3326207323964069  0.9411539036045723
  0.7477941052866512  0.8318823717501972  0.4394640598687189
  0.7401873546845721  0.8268196323870498  0.9316502046275302
  0.0004890210469455  0.1678288116335338  0.1915799711803033
  0.0005175184658697  0.1661876963152409  0.6912014379204479
  0.0005898188490221  0.6658005494831515  0.1895725913865078
  0.9996792421761003  0.6656290260355034  0.6887386883069838
  0.2500587400952128  0.1664873954474544  0.1916313114831070
  0.2503076089959607  0.1667641577034402  0.6916480208025247
  0.2502407533972003  0.6662842757997254  0.1905956209509725
  0.2498619365375348  0.6664398705861598  0.6913599575261671
  0.4999410849047905  0.1664873954474544  0.1916313114831070
  0.4996922160040426  0.1667641577034402  0.6916480208025247
  0.4997590716028030  0.6662842757997254  0.1905956209509725
  0.5001378884624684  0.6664398705861598  0.6913599575261671
  0.7495108039530506  0.1678288116335338  0.1915799711803033
  0.7494823065341337  0.1661876963152409  0.6912014379204479
  0.7494100061509812  0.6658005494831515  0.1895725913865078
  0.7503205828239030  0.6656290260355034  0.6887386883069838
  0.1252057388018457  0.4162238846960165  0.1910759445058190
  0.1250048309407816  0.4164408104539417  0.6919078908260945
  0.1261309949264273  0.9167938655532096  0.1903455677927113
  0.1252218904820736  0.9168022951388437  0.6894147594151434
  0.3749999125000016  0.4164070997033633  0.1915491190936081
  0.3749999125000016  0.4165699996288411  0.6918157524298750
  0.3749999125000016  0.9165213166193811  0.1911680821943875
  0.3749999125000016  0.9163447030182115  0.6917907485086444
  0.6247940861981579  0.4162238846960165  0.1910759445058190
  0.6249949940592217  0.4164408104539417  0.6919078908260945
  0.6238688300735762  0.9167938655532096  0.1903455677927113
  0.6247779345179298  0.9168022951388437  0.6894147594151434
  0.8749999125000016  0.4167323729735202  0.1910832247308392
  0.8749999125000016  0.4156265586674692  0.6911343170917376
  0.8749999125000016  0.9182160858087655  0.2065491617469419
  0.8749999125000016  0.9153599003637822  0.6825586854717614
 
  0.00000000E+00  0.00000000E+00  0.00000000E+00
  0.00000000E+00  0.00000000E+00  0.00000000E+00
  0.00000000E+00  0.00000000E+00  0.00000000E+00
  0.00000000E+00  0.00000000E+00  0.00000000E+00
  0.00000000E+00  0.00000000E+00  0.00000000E+00
  0.00000000E+00  0.00000000E+00  0.00000000E+00
  0.00000000E+00  0.00000000E+00  0.00000000E+00
  0.00000000E+00  0.00000000E+00  0.00000000E+00
  0.00000000E+00  0.00000000E+00  0.00000000E+00
  0.00000000E+00  0.00000000E+00  0.00000000E+00
  0.00000000E+00  0.00000000E+00  0.00000000E+00
  0.00000000E+00  0.00000000E+00  0.00000000E+00
  0.00000000E+00  0.00000000E+00  0.00000000E+00
  0.00000000E+00  0.00000000E+00  0.00000000E+00
  0.00000000E+00  0.00000000E+00  0.00000000E+00
  0.00000000E+00  0.00000000E+00  0.00000000E+00
  0.00000000E+00  0.00000000E+00  0.00000000E+00
  0.00000000E+00  0.00000000E+00  0.00000000E+00
  0.00000000E+00  0.00000000E+00  0.00000000E+00
  0.00000000E+00  0.00000000E+00  0.00000000E+00
  0.00000000E+00  0.00000000E+00  0.00000000E+00
  0.00000000E+00  0.00000000E+00  0.00000000E+00
  0.00000000E+00  0.00000000E+00  0.00000000E+00
  0.00000000E+00  0.00000000E+00  0.00000000E+00
  0.00000000E+00  0.00000000E+00  0.00000000E+00
  0.00000000E+00  0.00000000E+00  0.00000000E+00
  0.00000000E+00  0.00000000E+00  0.00000000E+00
  0.00000000E+00  0.00000000E+00  0.00000000E+00
  0.00000000E+00  0.00000000E+00  0.00000000E+00
  0.00000000E+00  0.00000000E+00  0.00000000E+00
  0.00000000E+00  0.00000000E+00  0.00000000E+00
  0.00000000E+00  0.00000000E+00  0.00000000E+00
  0.00000000E+00  0.00000000E+00  0.00000000E+00
  0.00000000E+00  0.00000000E+00  0.00000000E+00
  0.00000000E+00  0.00000000E+00  0.00000000E+00
  0.00000000E+00  0.00000000E+00  0.00000000E+00
  0.00000000E+00  0.00000000E+00  0.00000000E+00
  0.00000000E+00  0.00000000E+00  0.00000000E+00
  0.00000000E+00  0.00000000E+00  0.00000000E+00
  0.00000000E+00  0.00000000E+00  0.00000000E+00
  0.00000000E+00  0.00000000E+00  0.00000000E+00
  0.00000000E+00  0.00000000E+00  0.00000000E+00
  0.00000000E+00  0.00000000E+00  0.00000000E+00
  0.00000000E+00  0.00000000E+00  0.00000000E+00
  0.00000000E+00  0.00000000E+00  0.00000000E+00
  0.00000000E+00  0.00000000E+00  0.00000000E+00
  0.00000000E+00  0.00000000E+00  0.00000000E+00
  0.00000000E+00  0.00000000E+00  0.00000000E+00
  0.00000000E+00  0.00000000E+00  0.00000000E+00
  0.00000000E+00  0.00000000E+00  0.00000000E+00
  0.00000000E+00  0.00000000E+00  0.00000000E+00
  0.00000000E+00  0.00000000E+00  0.00000000E+00
  0.00000000E+00  0.00000000E+00  0.00000000E+00
  0.00000000E+00  0.00000000E+00  0.00000000E+00
  0.00000000E+00  0.00000000E+00  0.00000000E+00
  0.00000000E+00  0.00000000E+00  0.00000000E+00
  0.00000000E+00  0.00000000E+00  0.00000000E+00
  0.00000000E+00  0.00000000E+00  0.00000000E+00
  0.00000000E+00  0.00000000E+00  0.00000000E+00
  0.00000000E+00  0.00000000E+00  0.00000000E+00
  0.00000000E+00  0.00000000E+00  0.00000000E+00
  0.00000000E+00  0.00000000E+00  0.00000000E+00
  0.00000000E+00  0.00000000E+00  0.00000000E+00
  0.00000000E+00  0.00000000E+00  0.00000000E+00
  0.00000000E+00  0.00000000E+00  0.00000000E+00
  0.00000000E+00  0.00000000E+00  0.00000000E+00
  0.00000000E+00  0.00000000E+00  0.00000000E+00
  0.00000000E+00  0.00000000E+00  0.00000000E+00
  0.00000000E+00  0.00000000E+00  0.00000000E+00
  0.00000000E+00  0.00000000E+00  0.00000000E+00
  0.00000000E+00  0.00000000E+00  0.00000000E+00
  0.00000000E+00  0.00000000E+00  0.00000000E+00
  0.00000000E+00  0.00000000E+00  0.00000000E+00
  0.00000000E+00  0.00000000E+00  0.00000000E+00
  0.00000000E+00  0.00000000E+00  0.00000000E+00
  0.00000000E+00  0.00000000E+00  0.00000000E+00
  0.00000000E+00  0.00000000E+00  0.00000000E+00
  0.00000000E+00  0.00000000E+00  0.00000000E+00
  0.00000000E+00  0.00000000E+00  0.00000000E+00
  0.00000000E+00  0.00000000E+00  0.00000000E+00
  0.00000000E+00  0.00000000E+00  0.00000000E+00
  0.00000000E+00  0.00000000E+00  0.00000000E+00
  0.00000000E+00  0.00000000E+00  0.00000000E+00
  0.00000000E+00  0.00000000E+00  0.00000000E+00
  0.00000000E+00  0.00000000E+00  0.00000000E+00
  0.00000000E+00  0.00000000E+00  0.00000000E+00
  0.00000000E+00  0.00000000E+00  0.00000000E+00
  0.00000000E+00  0.00000000E+00  0.00000000E+00
  0.00000000E+00  0.00000000E+00  0.00000000E+00
  0.00000000E+00  0.00000000E+00  0.00000000E+00
  0.00000000E+00  0.00000000E+00  0.00000000E+00
  0.00000000E+00  0.00000000E+00  0.00000000E+00
  0.00000000E+00  0.00000000E+00  0.00000000E+00
  0.00000000E+00  0.00000000E+00  0.00000000E+00
  0.00000000E+00  0.00000000E+00  0.00000000E+00
  0.00000000E+00  0.00000000E+00  0.00000000E+00
  0.00000000E+00  0.00000000E+00  0.00000000E+00
  0.00000000E+00  0.00000000E+00  0.00000000E+00
  0.00000000E+00  0.00000000E+00  0.00000000E+00
  0.00000000E+00  0.00000000E+00  0.00000000E+00
  0.00000000E+00  0.00000000E+00  0.00000000E+00
  0.00000000E+00  0.00000000E+00  0.00000000E+00
  0.00000000E+00  0.00000000E+00  0.00000000E+00
  0.00000000E+00  0.00000000E+00  0.00000000E+00
  0.00000000E+00  0.00000000E+00  0.00000000E+00
  0.00000000E+00  0.00000000E+00  0.00000000E+00
  0.00000000E+00  0.00000000E+00  0.00000000E+00
  0.00000000E+00  0.00000000E+00  0.00000000E+00
  0.00000000E+00  0.00000000E+00  0.00000000E+00
  0.00000000E+00  0.00000000E+00  0.00000000E+00
  0.00000000E+00  0.00000000E+00  0.00000000E+00
  0.00000000E+00  0.00000000E+00  0.00000000E+00
  0.00000000E+00  0.00000000E+00  0.00000000E+00
  0.00000000E+00  0.00000000E+00  0.00000000E+00
  0.00000000E+00  0.00000000E+00  0.00000000E+00
  0.00000000E+00  0.00000000E+00  0.00000000E+00
  0.00000000E+00  0.00000000E+00  0.00000000E+00
  0.00000000E+00  0.00000000E+00  0.00000000E+00
  0.00000000E+00  0.00000000E+00  0.00000000E+00
  0.00000000E+00  0.00000000E+00  0.00000000E+00
  0.00000000E+00  0.00000000E+00  0.00000000E+00
  0.00000000E+00  0.00000000E+00  0.00000000E+00
  0.00000000E+00  0.00000000E+00  0.00000000E+00
  0.00000000E+00  0.00000000E+00  0.00000000E+00
  0.00000000E+00  0.00000000E+00  0.00000000E+00
  0.00000000E+00  0.00000000E+00  0.00000000E+00
  0.00000000E+00  0.00000000E+00  0.00000000E+00
