This file is generated by VASPKIT code  
    1.000000000000000     
    12.9960000000000004    0.0000000000000000    0.0000000000000000
     0.0000000000000000   11.2548661479999996    0.0000000000000000
     0.0000000000000000    0.0000000000000000   10.4097960000000000
   Zn   O 
    63    64
Direct
  0.1250700555092031  0.0819022341064618  0.2507243368812422
  0.1253630265439765  0.0815999798897146  0.7501943055244233
  0.1246846396976967  0.5836588732740914  0.2490736088871212
  0.1235480601198964  0.5847379027121119  0.7514804628691653
  0.3750000499999970  0.0828210826178793  0.2517313446190283
  0.3750000499999970  0.0824324655160270  0.7510274623702522
  0.3750000499999970  0.5833197889811633  0.2508535048650207
  0.3750000499999970  0.5840487540880434  0.7516408505059131
  0.6249300444907911  0.0819022341064618  0.2507243368812422
  0.6246370734560175  0.0815999798897146  0.7501943055244233
  0.6253154603022975  0.5836588732740914  0.2490736088871212
  0.6264520398800977  0.5847379027121119  0.7514804628691653
  0.8750000499999970  0.0826804374962073  0.2501413073714489
  0.8750000499999970  0.0773397322452605  0.7379826380342008
  0.8750000499999970  0.5846229845238362  0.2477408477420008
  0.8750000499999970  0.5836620312162437  0.7492720755003469
  0.9999956181169251  0.3342149871195348  0.2518684842769086
  0.0000712887477685  0.3328804571217164  0.7506699030654008
  0.9983344852711424  0.8343725566439444  0.2418187484514959
  0.9979915481655635  0.8333585363335370  0.7510575498600205
  0.2500268952218004  0.3331538122943296  0.2518111497924133
  0.2499383665451966  0.3334730540434467  0.7518153943688979
  0.2499133787806671  0.8325953923724665  0.2498232178237926
  0.2486448792929254  0.8336974611034983  0.7512291721896641
  0.4999732047781936  0.3331538122943296  0.2518111497924133
  0.5000617334548050  0.3334730540434467  0.7518153943688979
  0.5000867212193341  0.8325953923724665  0.2498232178237926
  0.5013552207070687  0.8336974611034983  0.7512291721896641
  0.7500044818830690  0.3342149871195348  0.2518684842769086
  0.7499288112522253  0.3328804571217164  0.7506699030654008
  0.7516656147288516  0.8343725566439444  0.2418187484514959
  0.7520085518344306  0.8333585363335370  0.7510575498600205
  0.0007860260939658  0.1671402579683950  0.5002444875492049
  0.0060531569204197  0.1670758926984988  0.0040569699404429
 -0.0000319256188976  0.6669417997588546  0.4974390975476555
  0.9979744936127530  0.6714716938207210  0.9974187408731042
  0.2500067635223681  0.1665748721662360  0.5016889169550286
  0.2509320381874069  0.1665596643599842  0.0016707437514675
  0.2497574325640355  0.6671056956544048  0.5008116197217297
  0.2487284806196447  0.6675878447871313 -0.0008168028907411
  0.4999930614776355  0.1665748721662360  0.5016889169550286
  0.4990677868125964  0.1665596643599842  0.0016707437514675
  0.5002423924359679  0.6671056956544048  0.5008116197217297
  0.5012713443803586  0.6675878447871313 -0.0008168028907411
  0.7492137989060373  0.1671402579683950  0.5002444875492049
  0.7439466680795834  0.1670758926984988  0.0040569699404429
  0.7500317506189008  0.6669417997588546  0.4974390975476555
  0.7520253313872503  0.6714716938207210  0.9974187408731042
  0.1253448605003974  0.4175524930030792  0.5016142910610791
  0.1250651925626692  0.4171027798367052  0.0012434303668943
  0.1243863066365091  0.9156178730162682  0.4982664472064662
  0.1225661489903725  0.9147195645775159  0.9989251862276566
  0.3749999125000016  0.4170443184232645  0.5017445909496109
  0.3749999125000016  0.4175202515219976  0.0013747644850031
  0.3749999125000016  0.9164744254654325  0.5013414829614217
  0.3749999125000016  0.9167339100908394  0.0015458156176328
  0.6246549644996058  0.4175524930030792  0.5016142910610791
  0.6249346324373340  0.4171027798367052  0.0012434303668943
  0.6256135183634941  0.9156178730162682  0.4982664472064662
  0.6274336760096306  0.9147195645775159  0.9989251862276566
  0.8749999125000016  0.4174340977469627  0.5008271139835807
  0.8749999125000016  0.4172544932772214  0.0009475446434482
  0.8749999125000016  0.9147881801163614  0.4866527749285310
  0.1255034112196936  0.0838704225074289  0.4409424007974356
  0.1266866563095636  0.0836861366175874  0.9407908288701329
  0.1259347709937111  0.5826404540750190  0.4398141850840832
  0.1250546291123016  0.5812212083084067  0.9412140972810380
  0.3750000499999970  0.0835432042266380  0.4421326306399052
  0.3750000499999970  0.0835964772469554  0.9414154224982095
  0.3750000499999970  0.5832351308220026  0.4415555845236384
  0.3750000499999970  0.5833957116678724  0.9418086832460607
  0.6244966887803004  0.0838704225074289  0.4409424007974356
  0.6233134436904305  0.0836861366175874  0.9407908288701329
  0.6240653290062831  0.5826404540750190  0.4398141850840832
  0.6249454708876924  0.5812212083084067  0.9412140972810380
  0.8750000499999970  0.0871137973344282  0.4437159780433091
  0.8750000499999970  0.1042755714997336  0.9299280562621735
  0.8750000499999970  0.5823262207779881  0.4385096696802849
  0.8750000499999970  0.5810998902603765  0.9395933728815213
  0.0004822923614501  0.3341074533825650  0.4420805837349691
 -0.0001634519552114  0.3318828174569335  0.9416603108744149
  0.0024823377058682  0.8314386696231421  0.4372331531162417
  0.0096671310336680  0.8282658969781834  0.9329899603622759
  0.2501953353179422  0.3332513655357559  0.4422887379719505
  0.2502565812628213  0.3330921179070983  0.9422005669987203
  0.2508451155223531  0.8330820716313125  0.4404201117573333
  0.2518697718946378  0.8337129715387775  0.9409433658747056
  0.4998047646820519  0.3332513655357559  0.4422887379719505
  0.4997435187371728  0.3330921179070983  0.9422005669987203
  0.4991549844776410  0.8330820716313125  0.4404201117573333
  0.4981303281053562  0.8337129715387775  0.9409433658747056
  0.7495178076385440  0.3341074533825650  0.4420805837349691
  0.7501635519552057  0.3318828174569335  0.9416603108744149
  0.7475177622941259  0.8314386696231421  0.4372331531162417
  0.7403329689663258  0.8282658969781834  0.9329899603622759
  0.0006669017373343  0.1679027579322270  0.1917476889346694
  0.0003756710338052  0.1662052122668782  0.6915807486058967
  0.0005278086680612  0.6650838202628584  0.1889318585207450
  0.9995312192062343  0.6649708044464768  0.6871717693753433
  0.2502265338818082  0.1667793575338311  0.1920924381747836
  0.2502503528353779  0.1669892561307346  0.6919897990013082
  0.2503750511634966  0.6660192316214315  0.1904417148308264
  0.2497836851746080  0.6664637165221821  0.6912819028574456
  0.4997732911181951  0.1667793575338311  0.1920924381747836
  0.4997494721646253  0.1669892561307346  0.6919897990013082
  0.4996247738365067  0.6660192316214315  0.1904417148308264
  0.5002161398253949  0.6664637165221821  0.6912819028574456
  0.7493329232626620  0.1679027579322270  0.1917476889346694
  0.7496241539661982  0.1662052122668782  0.6915807486058967
  0.7494720163319422  0.6650838202628584  0.1889318585207450
  0.7504686057937690  0.6649708044464768  0.6871717693753433
  0.1253235397047223  0.4158766830373745  0.1915725025626814
  0.1250243922144367  0.4165370826108488  0.6920329129593210
  0.1268551464332871  0.9170674759962234  0.1900911362328433
  0.1254639300003814  0.9171673078835804  0.6878239975587429
  0.3749999125000016  0.4162300572429278  0.1920602911103555
  0.3749999125000016  0.4168316806044721  0.6921905401153863
  0.3749999125000016  0.9169399892902355  0.1920614907381399
  0.3749999125000016  0.9163386441625568  0.6913904328962622
  0.6246762852952807  0.4158766830373745  0.1915725025626814
  0.6249754327855664  0.4165370826108488  0.6920329129593210
  0.6231446785667162  0.9170674759962234  0.1900911362328433
  0.6245358949996217  0.9171673078835804  0.6878239975587429
  0.8749999125000016  0.4160148736670949  0.1912196738926736
  0.8749999125000016  0.4153531684400684  0.6912778674138024
  0.8749999125000016  0.9192117275050321  0.2109692704242603
  0.8749999125000016  0.9148254859861228  0.6804386297797326
 
  0.00000000E+00  0.00000000E+00  0.00000000E+00
  0.00000000E+00  0.00000000E+00  0.00000000E+00
  0.00000000E+00  0.00000000E+00  0.00000000E+00
  0.00000000E+00  0.00000000E+00  0.00000000E+00
  0.00000000E+00  0.00000000E+00  0.00000000E+00
  0.00000000E+00  0.00000000E+00  0.00000000E+00
  0.00000000E+00  0.00000000E+00  0.00000000E+00
  0.00000000E+00  0.00000000E+00  0.00000000E+00
  0.00000000E+00  0.00000000E+00  0.00000000E+00
  0.00000000E+00  0.00000000E+00  0.00000000E+00
  0.00000000E+00  0.00000000E+00  0.00000000E+00
  0.00000000E+00  0.00000000E+00  0.00000000E+00
  0.00000000E+00  0.00000000E+00  0.00000000E+00
  0.00000000E+00  0.00000000E+00  0.00000000E+00
  0.00000000E+00  0.00000000E+00  0.00000000E+00
  0.00000000E+00  0.00000000E+00  0.00000000E+00
  0.00000000E+00  0.00000000E+00  0.00000000E+00
  0.00000000E+00  0.00000000E+00  0.00000000E+00
  0.00000000E+00  0.00000000E+00  0.00000000E+00
  0.00000000E+00  0.00000000E+00  0.00000000E+00
  0.00000000E+00  0.00000000E+00  0.00000000E+00
  0.00000000E+00  0.00000000E+00  0.00000000E+00
  0.00000000E+00  0.00000000E+00  0.00000000E+00
  0.00000000E+00  0.00000000E+00  0.00000000E+00
  0.00000000E+00  0.00000000E+00  0.00000000E+00
  0.00000000E+00  0.00000000E+00  0.00000000E+00
  0.00000000E+00  0.00000000E+00  0.00000000E+00
  0.00000000E+00  0.00000000E+00  0.00000000E+00
  0.00000000E+00  0.00000000E+00  0.00000000E+00
  0.00000000E+00  0.00000000E+00  0.00000000E+00
  0.00000000E+00  0.00000000E+00  0.00000000E+00
  0.00000000E+00  0.00000000E+00  0.00000000E+00
  0.00000000E+00  0.00000000E+00  0.00000000E+00
  0.00000000E+00  0.00000000E+00  0.00000000E+00
  0.00000000E+00  0.00000000E+00  0.00000000E+00
  0.00000000E+00  0.00000000E+00  0.00000000E+00
  0.00000000E+00  0.00000000E+00  0.00000000E+00
  0.00000000E+00  0.00000000E+00  0.00000000E+00
  0.00000000E+00  0.00000000E+00  0.00000000E+00
  0.00000000E+00  0.00000000E+00  0.00000000E+00
  0.00000000E+00  0.00000000E+00  0.00000000E+00
  0.00000000E+00  0.00000000E+00  0.00000000E+00
  0.00000000E+00  0.00000000E+00  0.00000000E+00
  0.00000000E+00  0.00000000E+00  0.00000000E+00
  0.00000000E+00  0.00000000E+00  0.00000000E+00
  0.00000000E+00  0.00000000E+00  0.00000000E+00
  0.00000000E+00  0.00000000E+00  0.00000000E+00
  0.00000000E+00  0.00000000E+00  0.00000000E+00
  0.00000000E+00  0.00000000E+00  0.00000000E+00
  0.00000000E+00  0.00000000E+00  0.00000000E+00
  0.00000000E+00  0.00000000E+00  0.00000000E+00
  0.00000000E+00  0.00000000E+00  0.00000000E+00
  0.00000000E+00  0.00000000E+00  0.00000000E+00
  0.00000000E+00  0.00000000E+00  0.00000000E+00
  0.00000000E+00  0.00000000E+00  0.00000000E+00
  0.00000000E+00  0.00000000E+00  0.00000000E+00
  0.00000000E+00  0.00000000E+00  0.00000000E+00
  0.00000000E+00  0.00000000E+00  0.00000000E+00
  0.00000000E+00  0.00000000E+00  0.00000000E+00
  0.00000000E+00  0.00000000E+00  0.00000000E+00
  0.00000000E+00  0.00000000E+00  0.00000000E+00
  0.00000000E+00  0.00000000E+00  0.00000000E+00
  0.00000000E+00  0.00000000E+00  0.00000000E+00
  0.00000000E+00  0.00000000E+00  0.00000000E+00
  0.00000000E+00  0.00000000E+00  0.00000000E+00
  0.00000000E+00  0.00000000E+00  0.00000000E+00
  0.00000000E+00  0.00000000E+00  0.00000000E+00
  0.00000000E+00  0.00000000E+00  0.00000000E+00
  0.00000000E+00  0.00000000E+00  0.00000000E+00
  0.00000000E+00  0.00000000E+00  0.00000000E+00
  0.00000000E+00  0.00000000E+00  0.00000000E+00
  0.00000000E+00  0.00000000E+00  0.00000000E+00
  0.00000000E+00  0.00000000E+00  0.00000000E+00
  0.00000000E+00  0.00000000E+00  0.00000000E+00
  0.00000000E+00  0.00000000E+00  0.00000000E+00
  0.00000000E+00  0.00000000E+00  0.00000000E+00
  0.00000000E+00  0.00000000E+00  0.00000000E+00
  0.00000000E+00  0.00000000E+00  0.00000000E+00
  0.00000000E+00  0.00000000E+00  0.00000000E+00
  0.00000000E+00  0.00000000E+00  0.00000000E+00
  0.00000000E+00  0.00000000E+00  0.00000000E+00
  0.00000000E+00  0.00000000E+00  0.00000000E+00
  0.00000000E+00  0.00000000E+00  0.00000000E+00
  0.00000000E+00  0.00000000E+00  0.00000000E+00
  0.00000000E+00  0.00000000E+00  0.00000000E+00
  0.00000000E+00  0.00000000E+00  0.00000000E+00
  0.00000000E+00  0.00000000E+00  0.00000000E+00
  0.00000000E+00  0.00000000E+00  0.00000000E+00
  0.00000000E+00  0.00000000E+00  0.00000000E+00
  0.00000000E+00  0.00000000E+00  0.00000000E+00
  0.00000000E+00  0.00000000E+00  0.00000000E+00
  0.00000000E+00  0.00000000E+00  0.00000000E+00
  0.00000000E+00  0.00000000E+00  0.00000000E+00
  0.00000000E+00  0.00000000E+00  0.00000000E+00
  0.00000000E+00  0.00000000E+00  0.00000000E+00
  0.00000000E+00  0.00000000E+00  0.00000000E+00
  0.00000000E+00  0.00000000E+00  0.00000000E+00
  0.00000000E+00  0.00000000E+00  0.00000000E+00
  0.00000000E+00  0.00000000E+00  0.00000000E+00
  0.00000000E+00  0.00000000E+00  0.00000000E+00
  0.00000000E+00  0.00000000E+00  0.00000000E+00
  0.00000000E+00  0.00000000E+00  0.00000000E+00
  0.00000000E+00  0.00000000E+00  0.00000000E+00
  0.00000000E+00  0.00000000E+00  0.00000000E+00
  0.00000000E+00  0.00000000E+00  0.00000000E+00
  0.00000000E+00  0.00000000E+00  0.00000000E+00
  0.00000000E+00  0.00000000E+00  0.00000000E+00
  0.00000000E+00  0.00000000E+00  0.00000000E+00
  0.00000000E+00  0.00000000E+00  0.00000000E+00
  0.00000000E+00  0.00000000E+00  0.00000000E+00
  0.00000000E+00  0.00000000E+00  0.00000000E+00
  0.00000000E+00  0.00000000E+00  0.00000000E+00
  0.00000000E+00  0.00000000E+00  0.00000000E+00
  0.00000000E+00  0.00000000E+00  0.00000000E+00
  0.00000000E+00  0.00000000E+00  0.00000000E+00
  0.00000000E+00  0.00000000E+00  0.00000000E+00
  0.00000000E+00  0.00000000E+00  0.00000000E+00
  0.00000000E+00  0.00000000E+00  0.00000000E+00
  0.00000000E+00  0.00000000E+00  0.00000000E+00
  0.00000000E+00  0.00000000E+00  0.00000000E+00
  0.00000000E+00  0.00000000E+00  0.00000000E+00
  0.00000000E+00  0.00000000E+00  0.00000000E+00
  0.00000000E+00  0.00000000E+00  0.00000000E+00
  0.00000000E+00  0.00000000E+00  0.00000000E+00
  0.00000000E+00  0.00000000E+00  0.00000000E+00
  0.00000000E+00  0.00000000E+00  0.00000000E+00
  0.00000000E+00  0.00000000E+00  0.00000000E+00
