This file is generated by VASPKIT code  
       1.0 
    12.9960002898999996  0.0000000000000000  0.0000000000000000 
     0.0000000000000000 16.8822998999999996  0.0000000000000000 
     0.0000000000000000  0.0000000000000000 15.6146936416499997 
  Zn    O
  143   144
Direct
  0.0999998510000000  0.3226219526666667  0.2667161386666667
  0.0999998510000000  0.3226792520000000  0.6005318726666666
  0.0999998510000000  0.6561204106666667  0.6000877780000000
  0.0999998510000000  0.6562313146666666  0.2668059033333333
  0.1000000000000000  0.4333498786666667  0.0999264880000000
  0.1000000000000000  0.4334264506666667  0.4338029386666667
  0.1000000000000000  0.1000000000000000  0.1000000000000000
  0.1000000000000000  0.1000745060000000  0.4334667286666666
  0.2235759180000000  0.4897272100000000  0.2670046253333334
  0.2238221750000000  0.2665654133333333  0.4340434633333333
  0.2245262550000000  0.4895709266666667  0.6003505946666667
  0.2245469970000000  0.6001948026666667  0.4337467113333334
  0.2247925090000000  0.6002327906666667  0.0999877220000000
  0.2248179300000000  0.1558192280000000  0.6004046760000000
  0.2251309440000000  0.1557007740000000  0.2668363413333333
  0.2251700450000000  0.2665587773333333  0.0999274813333333
  0.3486763520000000  0.4336277553333334  0.4348056873333334
  0.3489541100000000  0.3235972433333333  0.2678273086666667
  0.3489798590000000  0.0994950693333334  0.4338511386666667
  0.3491765540000000  0.4332687366666667  0.0998911226666667
  0.3493752170000000  0.6559893200000001  0.2667764986666666
  0.3495292350000000  0.3226639540000000  0.6007764900000000
  0.3496275830000000  0.6561206886666667  0.6006161133333333
  0.3501929330000000  0.1001550513333333  0.1001297400000000
  0.4692886760000000  0.2639939893333333  0.4336606426666667
  0.4693638370000000  0.4902284453333334  0.2687680286666667
  0.4742372320000000  0.6010239826666667  0.4344515166666666
  0.4742374700000000  0.4895635353333334  0.6005342166666667
  0.4748214770000000  0.1555038006666667  0.6007326206666667
  0.4749025390000000  0.5998906206666667  0.0999374553333333
  0.4763927150000000  0.1544038960000000  0.2677237553333334
  0.4764990490000000  0.2671736986666667  0.1004837513333333
  0.5999999030000001  0.6551772266666667  0.2674455206666667
  0.5999999030000001  0.6559137413333334  0.6007688606666667
  0.5999999030000001  0.3220997360000000  0.5985601506666667
  0.6000000219999999  0.0993048113333334  0.4346373240000000
  0.6000000219999999  0.4384687253333333  0.4344105086666666
  0.6000000219999999  0.0997624160000000  0.1000409286666667
  0.6000000219999999  0.4318775640000000  0.0968783860000000
  0.7235009660000000  0.2671736986666667  0.1004837513333333
  0.7236070020000001  0.1544038960000000  0.2677237553333334
  0.7250974160000001  0.5998906206666667  0.0999374553333333
  0.7251782400000000  0.1555038006666667  0.6007326206666667
  0.7257622470000000  0.4895635353333334  0.6005342166666667
  0.7257627230000001  0.6010239826666667  0.4344515166666666
  0.7306358799999999  0.4902284453333334  0.2687680286666667
  0.7307112800000000  0.2639939893333333  0.4336606426666667
  0.8498070230000001  0.1001550513333333  0.1001297400000000
  0.8503721340000001  0.6561206886666667  0.6006161133333333
  0.8504704820000000  0.3226639540000000  0.6007764900000000
  0.8506244999999999  0.6559893200000001  0.2667764986666666
  0.8508234010000000  0.4332687366666667  0.0998911226666667
  0.8510201559999999  0.0994950693333334  0.4338511386666667
  0.8510456070000001  0.3235972433333333  0.2678273086666667
  0.8513236030000000  0.4336277553333334  0.4348056873333334
  0.9748299110000000  0.2665587773333333  0.0999274813333333
  0.9748687130000000  0.1557007740000000  0.2668363413333333
  0.9751817570000001  0.1558192280000000  0.6004046760000000
  0.9752074470000001  0.6002327906666667  0.0999877220000000
  0.9754529580000000  0.6001948026666667  0.4337467113333334
  0.9754734620000001  0.4895709266666667  0.6003505946666667
  0.9761778100000000  0.2665654133333333  0.4340434633333333
  0.9764237990000000  0.4897272100000000  0.2670046253333334
0.975000024   0.155599996   0.93333298
0.975000024   0.488933325   0.93333298
0.975000024   0.822266638   0.266666323
0.975000024   0.822266638   0.599999666
0.975000024   0.822266638   0.93333298
0.975000143   0.266711056   0.766666353
0.975000143   0.60004437   0.766666353
0.975000143   0.933377683   0.099999681
0.975000143   0.933377683   0.433333009
0.975000143   0.933377683   0.766666353
0.099999994   0.322266668   0.93333298
0.099999994   0.655600011   0.93333298
0.099999994   0.988933325   0.266666323
0.099999994   0.988933325   0.599999666
0.099999994   0.988933325   0.93333298
0.100000143   0.100044385   0.766666353
0.100000143   0.433377713   0.766666353
0.100000143   0.766711056   0.099999681
0.100000143   0.766711056   0.433333009
0.100000143   0.766711056   0.766666353
0.224999994   0.155599996   0.93333298
0.224999994   0.488933325   0.93333298
0.224999994   0.822266638   0.266666323
0.224999994   0.822266638   0.599999666
0.224999994   0.822266638   0.93333298
0.225000143   0.266711056   0.766666353
0.225000143   0.60004437   0.766666353
0.225000143   0.933377683   0.099999681
0.225000143   0.933377683   0.433333009
0.225000143   0.933377683   0.766666353
0.349999994   0.322266668   0.93333298
0.349999994   0.655600011   0.93333298
0.349999994   0.988933325   0.266666323
0.349999994   0.988933325   0.599999666
0.349999994   0.988933325   0.93333298
0.350000143   0.100044385   0.766666353
0.350000143   0.433377713   0.766666353
0.350000143   0.766711056   0.099999681
0.350000143   0.766711056   0.433333009
0.350000143   0.766711056   0.766666353
0.475000024   0.155599996   0.93333298
0.475000024   0.488933325   0.93333298
0.475000024   0.822266638   0.266666323
0.475000024   0.822266638   0.599999666
0.475000024   0.822266638   0.93333298
0.475000143   0.266711056   0.766666353
0.475000143   0.60004437   0.766666353
0.475000143   0.933377683   0.099999681
0.475000143   0.933377683   0.433333009
0.475000143   0.933377683   0.766666353
0.600000024   0.322266668   0.93333298
0.600000024   0.655600011   0.93333298
0.600000024   0.988933325   0.266666323
0.600000024   0.988933325   0.599999666
0.600000024   0.988933325   0.93333298
0.600000143   0.100044385   0.766666353
0.600000143   0.433377713   0.766666353
0.600000143   0.766711056   0.099999681
0.600000143   0.766711056   0.433333009
0.600000143   0.766711056   0.766666353
0.725000024   0.155599996   0.93333298
0.725000024   0.488933325   0.93333298
0.725000024   0.822266638   0.266666323
0.725000024   0.822266638   0.599999666
0.725000024   0.822266638   0.93333298
0.725000143   0.266711056   0.766666353
0.725000143   0.60004437   0.766666353
0.725000143   0.933377683   0.099999681
0.725000143   0.933377683   0.433333009
0.725000143   0.933377683   0.766666353
0.850000024   0.322266668   0.93333298
0.850000024   0.655600011   0.93333298
0.850000024   0.988933325   0.266666323
0.850000024   0.988933325   0.599999666
0.850000024   0.988933325   0.93333298
0.850000143   0.100044385   0.766666353
0.850000143   0.433377713   0.766666353
0.850000143   0.766711056   0.099999681
0.850000143   0.766711056   0.433333009
0.850000143   0.766711056   0.766666353
  0.0999998510000000  0.3221073260000000  0.0609329680000000
  0.0999998510000000  0.3225535260000000  0.3935722673333333
  0.0999998510000000  0.6557415233333334  0.0604341960000000
  0.0999998510000000  0.6558037906666667  0.3936880986666667
  0.1000000000000000  0.4333397060000000  0.2269772453333333
  0.1000000000000000  0.4335903633333333  0.5606781006666667
  0.1000000000000000  0.1005118446666667  0.5604223573333333
  0.1000000000000000  0.1006962613333333  0.2271671060000000
  0.2249007510000000  0.4891311633333333  0.3939030333333334
  0.2249414010000000  0.6004536460000001  0.2271034086666667
  0.2250047610000000  0.4890741813333334  0.0606721773333333
  0.2251162220000000  0.6004225720000000  0.5606417820000000
  0.2251181890000000  0.1559003300000000  0.3937945926666667
  0.2251328510000000  0.2670312433333333  0.5608667693333333
  0.2252450270000000  0.1556340960000000  0.0608062086666667
  0.2254591870000000  0.2670554033333333  0.2273647946666667
  0.3488743590000000  0.4335981120000000  0.2272362073333334
  0.3492595840000000  0.3227574933333334  0.3941427633333333
  0.3497877410000000  0.6554744153333334  0.3936045333333333
  0.3500043440000000  0.4335852773333334  0.5613093140000001
  0.3501224210000000  0.1004313386666667  0.5606804453333334
  0.3503480240000000  0.6556858526666667  0.0609640020000000
  0.3508440540000000  0.1003943046666667  0.2274352073333333
  0.3510006950000000  0.3220623046666667  0.0610108113333333
  0.4674817010000000  0.2634723693333333  0.2257914706666667
  0.4742071320000000  0.4892002253333333  0.3944186133333333
  0.4747107310000000  0.2668077260000000  0.5598565106666666
  0.4750032710000000  0.6002855213333333  0.5611041546666666
  0.4750265760000000  0.5996659906666667  0.2274119620000000
  0.4751303480000000  0.1547031113333334  0.3941241666666667
  0.4752685710000000  0.4883574953333334  0.0610132753333333
  0.4754439880000000  0.1561924326666667  0.0609378153333333
  0.5999999030000001  0.3219692020000000  0.0590458053333333
  0.5999999030000001  0.3223210286666667  0.4069017333333333
  0.5999999030000001  0.6551423780000000  0.3942418260000000
  0.5999999030000001  0.6553188866666667  0.0610718866666667
  0.6000000219999999  0.4337859860000000  0.5604459606666666
  0.6000000219999999  0.4445586113333334  0.2239049833333333
  0.6000000219999999  0.0991500773333334  0.2273435753333334
  0.6000000219999999  0.1003448726666667  0.5612110459999999
  0.7245557290000000  0.1561924326666667  0.0609378153333333
  0.7247311460000001  0.4883574953333334  0.0610132753333333
  0.7248693690000001  0.1547031113333334  0.3941241666666667
  0.7249734390000000  0.5996659906666667  0.2274119620000000
  0.7249967440000000  0.6002855213333333  0.5611041546666666
  0.7252892240000000  0.2668077260000000  0.5598565106666666
  0.7257925260000000  0.4892002253333333  0.3944186133333333
  0.7325182539999999  0.2634723693333333  0.2257914706666667
  0.8489989620000000  0.3220623046666667  0.0610108113333333
  0.8491559609999999  0.1003943046666667  0.2274352073333333
  0.8496516329999999  0.6556858526666667  0.0609640020000000
  0.8498775350000001  0.1004313386666667  0.5606804453333334
  0.8499956710000001  0.4335852773333334  0.5613093140000001
  0.8502119770000001  0.6554744153333334  0.3936045333333333
  0.8507401330000000  0.3227574933333334  0.3941427633333333
  0.8511255970000000  0.4335981120000000  0.2272362073333334
  0.9745408280000001  0.2670554033333333  0.2273647946666667
  0.9747546899999999  0.1556340960000000  0.0608062086666667
  0.9748671040000001  0.2670312433333333  0.5608667693333333
  0.9748815280000001  0.1559003300000000  0.3937945926666667
  0.9748837340000001  0.6004225720000000  0.5606417820000000
  0.9749949560000000  0.4890741813333334  0.0606721773333333
  0.9750586139999999  0.6004536460000001  0.2271034086666667
  0.9750989660000000  0.4891311633333333  0.3939030333333334
0.975000024   0.155599996   0.727031946
0.975000024   0.488933325   0.727031946
0.975000024   0.822266638   0.060365245
0.975000024   0.822266638   0.393698543
0.975000024   0.822266638   0.727031946
0.975000143   0.266711056   0.893698573
0.975000143   0.60004437   0.893698573
0.975000143   0.933377683   0.227031901
0.975000143   0.933377683   0.56036526
0.975000143   0.933377683   0.893698573
0.099999994   0.322266668   0.727031946
0.099999994   0.655600011   0.727031946
0.099999994   0.988933325   0.060365245
0.099999994   0.988933325   0.393698543
0.099999994   0.988933325   0.727031946
0.100000143   0.100044385   0.893698573
0.100000143   0.433377713   0.893698573
0.100000143   0.766711056   0.227031901
0.100000143   0.766711056   0.56036526
0.100000143   0.766711056   0.893698573
0.224999994   0.155599996   0.727031946
0.224999994   0.488933325   0.727031946
0.224999994   0.822266638   0.060365245
0.224999994   0.822266638   0.393698543
0.224999994   0.822266638   0.727031946
0.225000143   0.266711056   0.893698573
0.225000143   0.60004437   0.893698573
0.225000143   0.933377683   0.227031901
0.225000143   0.933377683   0.56036526
0.225000143   0.933377683   0.893698573
0.349999994   0.322266668   0.727031946
0.349999994   0.655600011   0.727031946
0.349999994   0.988933325   0.060365245
0.349999994   0.988933325   0.393698543
0.349999994   0.988933325   0.727031946
0.350000143   0.100044385   0.893698573
0.350000143   0.433377713   0.893698573
0.350000143   0.766711056   0.227031901
0.350000143   0.766711056   0.56036526
0.350000143   0.766711056   0.893698573
0.475000024   0.155599996   0.727031946
0.475000024   0.488933325   0.727031946
0.475000024   0.822266638   0.060365245
0.475000024   0.822266638   0.393698543
0.475000024   0.822266638   0.727031946
0.475000143   0.266711056   0.893698573
0.475000143   0.60004437   0.893698573
0.475000143   0.933377683   0.227031901
0.475000143   0.933377683   0.56036526
0.475000143   0.933377683   0.893698573
0.600000024   0.322266668   0.727031946
0.600000024   0.655600011   0.727031946
0.600000024   0.988933325   0.060365245
0.600000024   0.988933325   0.393698543
0.600000024   0.988933325   0.727031946
0.600000143   0.100044385   0.893698573
0.600000143   0.433377713   0.893698573
0.600000143   0.766711056   0.227031901
0.600000143   0.766711056   0.56036526
0.600000143   0.766711056   0.893698573
0.725000024   0.155599996   0.727031946
0.725000024   0.488933325   0.727031946
0.725000024   0.822266638   0.060365245
0.725000024   0.822266638   0.393698543
0.725000024   0.822266638   0.727031946
0.725000143   0.266711056   0.893698573
0.725000143   0.60004437   0.893698573
0.725000143   0.933377683   0.227031901
0.725000143   0.933377683   0.56036526
0.725000143   0.933377683   0.893698573
0.850000024   0.322266668   0.727031946
0.850000024   0.655600011   0.727031946
0.850000024   0.988933325   0.060365245
0.850000024   0.988933325   0.393698543
0.850000024   0.988933325   0.727031946
0.850000143   0.100044385   0.893698573
0.850000143   0.433377713   0.893698573
0.850000143   0.766711056   0.227031901
0.850000143   0.766711056   0.56036526
0.850000143   0.766711056   0.893698573
