This file is generated by VASPKIT code  
1.0
       12.9960002899         0.0000000000         0.0000000000
        0.0000000000        16.8822994232         0.0000000000
        0.0000000000         0.0000000000        15.6146936417
   Zn    O
  144  143
Direct
     0.100000001         0.100000001         0.766666651
     0.100000001         0.433333337         0.766666651
     0.100000001         0.766666651         0.433333337
     0.100000001         0.766666651         0.766666651
     0.100000001         0.766666651         0.100000001
     0.100000136         0.211111054         0.933333337
     0.100000136         0.544444382         0.933333337
     0.100000136         0.877777696         0.266666681
     0.100000136         0.877777696         0.600000024
     0.100000136         0.877777696         0.933333337
     0.224999994         0.266666681         0.766666651
     0.224999994         0.600000024         0.766666651
     0.224999994         0.933333337         0.433333337
     0.224999994         0.933333337         0.766666651
     0.224999994         0.933333337         0.100000001
     0.225000143         0.044444382         0.933333337
     0.225000143         0.377777725         0.933333337
     0.225000143         0.711111069         0.266666681
     0.225000143         0.711111069         0.600000024
     0.225000143         0.711111069         0.933333337
     0.349999994         0.100000001         0.766666651
     0.349999994         0.433333337         0.766666651
     0.349999994         0.766666651         0.433333337
     0.349999994         0.766666651         0.766666651
     0.349999994         0.766666651         0.100000001
     0.350000143         0.211111054         0.933333337
     0.350000143         0.544444382         0.933333337
     0.350000143         0.877777696         0.266666681
     0.350000143         0.877777696         0.600000024
     0.350000143         0.877777696         0.933333337
     0.474999994         0.266666681         0.766666651
     0.474999994         0.600000024         0.766666651
     0.474999994         0.933333337         0.433333337
     0.474999994         0.933333337         0.766666651
     0.474999994         0.933333337         0.100000001
     0.475000143         0.044444382         0.933333337
     0.475000143         0.377777725         0.933333337
     0.475000143         0.711111069         0.266666681
     0.475000143         0.711111069         0.600000024
     0.475000143         0.711111069         0.933333337
     0.600000024         0.100000001         0.766666651
     0.600000024         0.433333337         0.766666651
     0.600000024         0.766666651         0.433333337
     0.600000024         0.766666651         0.766666651
     0.600000024         0.766666651         0.100000001
     0.600000143         0.211111054         0.933333337
     0.600000143         0.544444382         0.933333337
     0.600000143         0.877777696         0.266666681
     0.600000143         0.877777696         0.600000024
     0.600000143         0.877777696         0.933333337
     0.725000024         0.266666681         0.766666651
     0.725000024         0.600000024         0.766666651
     0.725000024         0.933333337         0.433333337
     0.725000024         0.933333337         0.766666651
     0.725000024         0.933333337         0.100000001
     0.725000143         0.044444382         0.933333337
     0.725000143         0.377777725         0.933333337
     0.725000143         0.711111069         0.266666681
     0.725000143         0.711111069         0.600000024
     0.725000143         0.711111069         0.933333337
     0.850000024         0.100000001         0.766666651
     0.850000024         0.433333337         0.766666651
     0.850000024         0.766666651         0.433333337
     0.850000024         0.766666651         0.766666651
     0.850000024         0.766666651         0.100000001
     0.850000143         0.211111054         0.933333337
     0.850000143         0.544444382         0.933333337
     0.850000143         0.877777696         0.266666681
     0.850000143         0.877777696         0.600000024
     0.850000143         0.877777696         0.933333337
     0.975000024         0.266666681         0.766666651
     0.975000024         0.600000024         0.766666651
     0.975000024         0.933333337         0.433333337
     0.975000024         0.933333337         0.766666651
     0.975000024         0.933333337         0.100000001
     0.975000143         0.044444382         0.933333337
     0.975000143         0.377777725         0.933333337
     0.975000143         0.711111069         0.266666681
     0.975000143         0.711111069         0.600000024
     0.975000143         0.711111069         0.933333337
     0.099852011         0.210950688         0.600045741
     0.099911541         0.210826591         0.266569763
     0.099941075         0.544417441         0.599919319
     0.100000001         0.100000001         0.100000001
     0.100027680         0.544334769         0.266592920
     0.100118577         0.433411509         0.099797860
     0.100505687         0.099691100         0.433206022
     0.101507761         0.433386147         0.433184206
     0.225115657         0.377326757         0.267098874
     0.225118458         0.267057508         0.433943957
     0.225148320         0.267036468         0.099380620
     0.225306571         0.044223011         0.599645138
     0.225338146         0.044144791         0.266905755
     0.225408480         0.599932969         0.099737018
     0.226127207         0.378411859         0.599257469
     0.226745293         0.598913193         0.433064759
     0.349760652         0.211486176         0.267077178
     0.349869072         0.100577205         0.099771149
     0.349998981         0.543258667         0.599266648
     0.350472689         0.544096768         0.266923070
     0.350777417         0.432940066         0.102501996
     0.350993305         0.101797499         0.433298826
     0.351023138         0.211861566         0.599283040
     0.360480398         0.428529918         0.429630011
     0.474759012         0.377766818         0.279444933
     0.474759310         0.276720196         0.429644823
     0.474761277         0.267602652         0.102479100
     0.474765271         0.044308823         0.266258597
     0.474765688         0.044371508         0.600132287
     0.474766076         0.599807560         0.099107184
     0.474766761         0.377766281         0.601370037
     0.474768162         0.600204647         0.433783591
     0.589043856         0.428517818         0.429616183
     0.598501444         0.211838946         0.599276125
     0.598531246         0.101792291         0.433290452
     0.598748803         0.432932913         0.102487467
     0.599060595         0.544088781         0.266910970
     0.599543989         0.543248832         0.599240482
     0.599660158         0.100568026         0.099775441
     0.599762619         0.211470574         0.267073125
     0.722777367         0.598904192         0.433054537
     0.723408043         0.378389925         0.599241555
     0.724109232         0.599910796         0.099713840
     0.724188924         0.044137176         0.266884059
     0.724236667         0.044202674         0.599640310
     0.724370003         0.267025083         0.099352255
     0.724391341         0.267061532         0.433925599
     0.724407434         0.377314895         0.267070681
     0.848029375         0.433373630         0.433160841
     0.848987162         0.099683940         0.433194190
     0.849407017         0.433411032         0.099781536
     0.849495530         0.544313669         0.266578496
     0.849517286         0.099998355         0.099997059
     0.849602938         0.544393837         0.599887550
     0.849608898         0.210830197         0.266563773
     0.849672019         0.210934266         0.600042403
     0.974755347         0.266818464         0.433178365
     0.974756181         0.600220144         0.099896021
     0.974758327         0.599952459         0.433129370
     0.974760950         0.044294234         0.599813461
     0.974763811         0.266906738         0.100072689
     0.974767864         0.377693534         0.266822636
     0.974768043         0.377659947         0.599637866
     0.974769592         0.044194430         0.266722411
     0.100000001         0.100000001         0.893698931
     0.100000001         0.433333337         0.893698931
     0.100000001         0.766666651         0.227032244
     0.100000001         0.766666651         0.560365558
     0.100000001         0.766666651         0.893698931
     0.100000136         0.211111054         0.727032244
     0.100000136         0.544444382         0.727032244
     0.100000136         0.877777696         0.393698901
     0.100000136         0.877777696         0.727032244
     0.100000136         0.877777696         0.060365576
     0.224999994         0.266666681         0.893698931
     0.224999994         0.600000024         0.893698931
     0.224999994         0.933333337         0.227032244
     0.224999994         0.933333337         0.560365558
     0.224999994         0.933333337         0.893698931
     0.225000143         0.044444382         0.727032244
     0.225000143         0.377777725         0.727032244
     0.225000143         0.711111069         0.393698901
     0.225000143         0.711111069         0.727032244
     0.225000143         0.711111069         0.060365576
     0.349999994         0.100000001         0.893698931
     0.349999994         0.433333337         0.893698931
     0.349999994         0.766666651         0.227032244
     0.349999994         0.766666651         0.560365558
     0.349999994         0.766666651         0.893698931
     0.350000143         0.211111054         0.727032244
     0.350000143         0.544444382         0.727032244
     0.350000143         0.877777696         0.393698901
     0.350000143         0.877777696         0.727032244
     0.350000143         0.877777696         0.060365576
     0.474999994         0.266666681         0.893698931
     0.474999994         0.600000024         0.893698931
     0.474999994         0.933333337         0.227032244
     0.474999994         0.933333337         0.560365558
     0.474999994         0.933333337         0.893698931
     0.475000143         0.044444382         0.727032244
     0.475000143         0.377777725         0.727032244
     0.475000143         0.711111069         0.393698901
     0.475000143         0.711111069         0.727032244
     0.475000143         0.711111069         0.060365576
     0.600000024         0.100000001         0.893698931
     0.600000024         0.433333337         0.893698931
     0.600000024         0.766666651         0.227032244
     0.600000024         0.766666651         0.560365558
     0.600000024         0.766666651         0.893698931
     0.600000143         0.211111054         0.727032244
     0.600000143         0.544444382         0.727032244
     0.600000143         0.877777696         0.393698901
     0.600000143         0.877777696         0.727032244
     0.600000143         0.877777696         0.060365576
     0.725000024         0.266666681         0.893698931
     0.725000024         0.600000024         0.893698931
     0.725000024         0.933333337         0.227032244
     0.725000024         0.933333337         0.560365558
     0.725000024         0.933333337         0.893698931
     0.725000143         0.044444382         0.727032244
     0.725000143         0.377777725         0.727032244
     0.725000143         0.711111069         0.393698901
     0.725000143         0.711111069         0.727032244
     0.725000143         0.711111069         0.060365576
     0.850000024         0.100000001         0.893698931
     0.850000024         0.433333337         0.893698931
     0.850000024         0.766666651         0.227032244
     0.850000024         0.766666651         0.560365558
     0.850000024         0.766666651         0.893698931
     0.850000143         0.211111054         0.727032244
     0.850000143         0.544444382         0.727032244
     0.850000143         0.877777696         0.393698901
     0.850000143         0.877777696         0.727032244
     0.850000143         0.877777696         0.060365576
     0.975000024         0.266666681         0.893698931
     0.975000024         0.600000024         0.893698931
     0.975000024         0.933333337         0.227032244
     0.975000024         0.933333337         0.560365558
     0.975000024         0.933333337         0.893698931
     0.975000143         0.044444382         0.727032244
     0.975000143         0.377777725         0.727032244
     0.975000143         0.711111069         0.393698901
     0.975000143         0.711111069         0.727032244
     0.975000143         0.711111069         0.060365576
     0.099908628         0.211206242         0.060539912
     0.099915959         0.544612765         0.060442980
     0.100023821         0.099821709         0.560340345
     0.100078464         0.099614158         0.227233917
     0.100177839         0.433237523         0.560320735
     0.100350328         0.433031380         0.227186665
     0.100390799         0.544600606         0.393679708
     0.100439616         0.211253986         0.393834263
     0.224801466         0.266569436         0.226697460
     0.224916160         0.266835153         0.560854435
     0.225191996         0.044464767         0.060268037
     0.225364208         0.599647343         0.560208440
     0.225620210         0.599585235         0.227082267
     0.225903749         0.378425628         0.060159188
     0.226514265         0.044273265         0.394087404
     0.228484243         0.378371179         0.394266576
     0.349921852         0.543354988         0.060101155
     0.349955052         0.100610845         0.227098197
     0.350128472         0.100525424         0.560356915
     0.350920826         0.211786911         0.060162589
     0.351503164         0.432633579         0.556999683
     0.351742893         0.541548133         0.394103616
     0.352345347         0.213800251         0.394249648
     0.352599174         0.431923479         0.229926094
     0.474757135         0.377810478         0.060578931
     0.474757314         0.044419255         0.393458098
     0.474759400         0.269265115         0.229926646
     0.474761009         0.044458747         0.060515419
     0.474765688         0.268225491         0.557000458
     0.474769503         0.599989235         0.226457939
     0.474769533         0.599982798         0.560722113
     0.596921742         0.431915432         0.229913116
     0.597172797         0.213789061         0.394246072
     0.597781777         0.541538179         0.394096226
     0.598029077         0.432622492         0.556986034
     0.598594427         0.211777300         0.060155526
     0.599411309         0.100508228         0.560351968
     0.599573553         0.100617521         0.227101088
     0.599591792         0.543344498         0.060080461
     0.721044600         0.378367811         0.394244403
     0.722996771         0.044256721         0.394069970
     0.723617315         0.378419697         0.060137309
     0.723915577         0.599576592         0.227062032
     0.724179804         0.599634767         0.560196280
     0.724333048         0.044455431         0.060263671
     0.724602520         0.266815662         0.560837746
     0.724723101         0.266560167         0.226673275
     0.849072218         0.211254254         0.393825710
     0.849141061         0.544588804         0.393666178
     0.849177241         0.433016509         0.227172971
     0.849351108         0.433218092         0.560302615
     0.849440634         0.099620409         0.227226347
     0.849501312         0.099813178         0.560326517
     0.849611640         0.544609070         0.060420964
     0.849621177         0.211203456         0.060532641
     0.974745512         0.044635206         0.393800706
     0.974758446         0.044666838         0.060328107
     0.974759459         0.266451895         0.560263574
     0.974761665         0.599704385         0.227054358
     0.974763930         0.266532332         0.227271363
     0.974764764         0.377997696         0.060292710
     0.974770248         0.599816859         0.560258210
     0.974772751         0.378331602         0.394074917
