This file is generated by VASPKIT code  
    1.000000000000000     
     9.7470006943000005    0.0000000000000000    0.0000000000000000
     0.0000000000000000   11.2548665999999997    0.0000000000000000
     0.0000000000000000    0.0000000000000000   10.4097957610999998
   Zn   O 
    48    47
Direct
  0.1666688763700798  0.0831018719092471  0.2306259474776366
  0.1666575911455164  0.0831510233262193  0.7528642636353937
  0.1666642458966182  0.5832068829086473  0.2496874557404875
  0.1666585431708801  0.5836361233242808  0.7499409440652337
  0.5011827541638263  0.0821599735080389  0.2488964022325689
  0.5012101489602084  0.0822479214490403  0.7519342895924654
  0.5005232276949256  0.5831040609197730  0.2483000158759028
  0.5001005070886594  0.5827872888199515  0.7495358977056721
  0.8321628616751823  0.0821577749772750  0.2488901143431324
  0.8321404311879040  0.0822559203954337  0.7519321610565639
  0.8328038470438892  0.5830982471176034  0.2482915544253191
  0.8332257007734999  0.5827929729625608  0.7495442258895978
 -0.0001568673848102  0.3349303879824871  0.2486196170858507
  0.0002490699720839  0.3348015062609633  0.7518530571439850
  0.9982518981212541  0.8320458435771895  0.2487696799129684
 -0.0015820998586814  0.8323565490005173  0.7518745261725037
  0.3334802792080252  0.3349314238144847  0.2486229182293756
  0.3330827502602576  0.3348079254792703  0.7518533691514432
  0.3350884590383922  0.8320425803972631  0.2487734237448969
  0.3349118623685535  0.8323506916805302  0.7518758097976871
  0.6666594167154284  0.3333660818008350  0.2498515873537055
  0.6666661501321390  0.3330562347681231  0.7496186418179976
  0.6666744014910205  0.8324752369509844  0.2496652128466111
  0.6666647241995548  0.8321055381314879  0.7503026825777469
 -0.0140424449050090  0.1741921859467041  0.5058224946226435
 -0.0017712957096390  0.1681687360513550 -0.0008444353613812
 -0.0014433822690033  0.6653187643170657  0.4996437162650105
 -0.0003031978030984  0.6664361381473362  0.9998447634861873
  0.3473842170098472  0.1742002274630887  0.5058592145544439
  0.3351004485504638  0.1681737345341490 -0.0008505494416047
  0.3347686306442770  0.6653148948765899  0.4996491210864467
  0.3336371968174924  0.6664306466945039  0.9998464103022401
  0.6666643869356087  0.1664599511808149  0.4997952752574558
  0.6666609902255990  0.1678513143537385  0.0005718518779816
  0.6666751081815339  0.6669391121466357  0.4995292190418817
  0.6666686882800986  0.6670241357964237 -0.0010079783889532
  0.1666788890896208  0.4184159597884813  0.5009899779810261
  0.1666682057845920  0.4180734858686673  0.0001024948516563
  0.1666651999862618  0.9009596294372194  0.5059174867808388
  0.1666694224232647  0.9152711890534031 -0.0008144285224432
  0.5011263915196352  0.4182182881631380  0.4995074828933279
  0.5008461217019374  0.4176061379832780  0.9996177894647282
  0.5011168657273766  0.9158319171037427  0.5016660552223181
  0.5007459402862033  0.9167012734715554  0.0002403357718536
  0.8322292117072910  0.4182222085387983  0.4995164779351896
  0.8324857862465032  0.4176025795390000  0.9996167988529479
  0.8322059594474208  0.9158284283728148  0.5016624661745565
  0.8325866324587258  0.9167108187079561  0.0002261693249474
  0.1666648309724249  0.0836621077288827  0.9435994171236594
  0.1666630141787313  0.5842319321677542  0.4403988095281338
  0.1666701568916272  0.5840078453662777  0.9400565056247325
  0.4985457711994247  0.0825629558753712  0.4401600947612834
  0.5001453662351242  0.0836931257144733  0.9414827225597686
  0.5003132056740529  0.5834817407574991  0.4390540140574153
  0.4999776195934000  0.5836396479545485  0.9396859176719248
  0.8347814704897556  0.0825638906483346  0.4401573581695026
  0.8331823228661853  0.0837033999096535  0.9414711105818331
  0.8330225325367627  0.5834816096237515  0.4390464362290601
  0.8333548548021079  0.5836366774181153  0.9396868723115572
  0.0012504888122051  0.3330043664757939  0.4398352817896830
 -0.0000166627624774  0.3338665517074090  0.9413878440605378
 -0.0002257407645147  0.8343766555414704  0.4399299394923057
 -0.0001277235139564  0.8336977084193362  0.9414140024335209
  0.3320991136064477  0.3330059166162309  0.4398400553257305
  0.3333481945486591  0.3338724982235901  0.9413886728240033
  0.3335539659227170  0.8343772826933181  0.4399284252042480
  0.3334630326333601  0.8336944471208672  0.9414118959655938
  0.6666762223840904  0.3324383898468025  0.4406620482991281
  0.6666641931274268  0.3334251729457944  0.9398042579606424
  0.6666611019259922  0.8337012337105303  0.4402947747495568
  0.6666656963132072  0.8336588265523239  0.9402812661885495
  0.0000012632249386  0.1666654751194286  0.1925589934878252
  0.0008474373601124  0.1662534850176537  0.6908075979633284
  0.0001109465710042  0.6664199212188172  0.1903973709392124
  0.0000191659278888  0.6671322128436541  0.6896896926246829
  0.3333378189011550  0.1666650236945235  0.1925622103179626
  0.3324936930470027  0.1662460127788940  0.6908280341605411
  0.3332183066303029  0.6664230921278637  0.1903960124459033
  0.3333047295572435  0.6671290776076894  0.6896921040953174
  0.6666643888567965  0.1665937360675169  0.1911824645034816
  0.6666710808832104  0.1659659139069461  0.6896792144275006
  0.6666635126139887  0.6667280262298839  0.1894646411895107
  0.6666655846736100  0.6661925935468187  0.6897492510822444
  0.1666677139821375  0.4166438520889710  0.1905027600729240
  0.1666567002538787  0.4165418085684767  0.6906356087339440
  0.1666709275950711  0.9164612011770814  0.1927959637345586
  0.1666637763299543  0.9174380618451162  0.6907166286159809
  0.5002488442918188  0.4162175277439779  0.1901391597308613
  0.4995476284033641  0.4157825961592135  0.6894530719044319
  0.5001427717314857  0.9165227741852656  0.1905806457388144
  0.4998945027913138  0.9167002270627228  0.6911333973246128
  0.8330754730932219  0.4162177030577863  0.1901338569628500
  0.8337892374072463  0.4157870624227341  0.6894573867396480
  0.8331943283121133  0.9165236256337816  0.1905744883084388
  0.8334364581169728  0.9167068308784599  0.6911354640750148
 
  0.00000000E+00  0.00000000E+00  0.00000000E+00
  0.00000000E+00  0.00000000E+00  0.00000000E+00
  0.00000000E+00  0.00000000E+00  0.00000000E+00
  0.00000000E+00  0.00000000E+00  0.00000000E+00
  0.00000000E+00  0.00000000E+00  0.00000000E+00
  0.00000000E+00  0.00000000E+00  0.00000000E+00
  0.00000000E+00  0.00000000E+00  0.00000000E+00
  0.00000000E+00  0.00000000E+00  0.00000000E+00
  0.00000000E+00  0.00000000E+00  0.00000000E+00
  0.00000000E+00  0.00000000E+00  0.00000000E+00
  0.00000000E+00  0.00000000E+00  0.00000000E+00
  0.00000000E+00  0.00000000E+00  0.00000000E+00
  0.00000000E+00  0.00000000E+00  0.00000000E+00
  0.00000000E+00  0.00000000E+00  0.00000000E+00
  0.00000000E+00  0.00000000E+00  0.00000000E+00
  0.00000000E+00  0.00000000E+00  0.00000000E+00
  0.00000000E+00  0.00000000E+00  0.00000000E+00
  0.00000000E+00  0.00000000E+00  0.00000000E+00
  0.00000000E+00  0.00000000E+00  0.00000000E+00
  0.00000000E+00  0.00000000E+00  0.00000000E+00
  0.00000000E+00  0.00000000E+00  0.00000000E+00
  0.00000000E+00  0.00000000E+00  0.00000000E+00
  0.00000000E+00  0.00000000E+00  0.00000000E+00
  0.00000000E+00  0.00000000E+00  0.00000000E+00
  0.00000000E+00  0.00000000E+00  0.00000000E+00
  0.00000000E+00  0.00000000E+00  0.00000000E+00
  0.00000000E+00  0.00000000E+00  0.00000000E+00
  0.00000000E+00  0.00000000E+00  0.00000000E+00
  0.00000000E+00  0.00000000E+00  0.00000000E+00
  0.00000000E+00  0.00000000E+00  0.00000000E+00
  0.00000000E+00  0.00000000E+00  0.00000000E+00
  0.00000000E+00  0.00000000E+00  0.00000000E+00
  0.00000000E+00  0.00000000E+00  0.00000000E+00
  0.00000000E+00  0.00000000E+00  0.00000000E+00
  0.00000000E+00  0.00000000E+00  0.00000000E+00
  0.00000000E+00  0.00000000E+00  0.00000000E+00
  0.00000000E+00  0.00000000E+00  0.00000000E+00
  0.00000000E+00  0.00000000E+00  0.00000000E+00
  0.00000000E+00  0.00000000E+00  0.00000000E+00
  0.00000000E+00  0.00000000E+00  0.00000000E+00
  0.00000000E+00  0.00000000E+00  0.00000000E+00
  0.00000000E+00  0.00000000E+00  0.00000000E+00
  0.00000000E+00  0.00000000E+00  0.00000000E+00
  0.00000000E+00  0.00000000E+00  0.00000000E+00
  0.00000000E+00  0.00000000E+00  0.00000000E+00
  0.00000000E+00  0.00000000E+00  0.00000000E+00
  0.00000000E+00  0.00000000E+00  0.00000000E+00
  0.00000000E+00  0.00000000E+00  0.00000000E+00
  0.00000000E+00  0.00000000E+00  0.00000000E+00
  0.00000000E+00  0.00000000E+00  0.00000000E+00
  0.00000000E+00  0.00000000E+00  0.00000000E+00
  0.00000000E+00  0.00000000E+00  0.00000000E+00
  0.00000000E+00  0.00000000E+00  0.00000000E+00
  0.00000000E+00  0.00000000E+00  0.00000000E+00
  0.00000000E+00  0.00000000E+00  0.00000000E+00
  0.00000000E+00  0.00000000E+00  0.00000000E+00
  0.00000000E+00  0.00000000E+00  0.00000000E+00
  0.00000000E+00  0.00000000E+00  0.00000000E+00
  0.00000000E+00  0.00000000E+00  0.00000000E+00
  0.00000000E+00  0.00000000E+00  0.00000000E+00
  0.00000000E+00  0.00000000E+00  0.00000000E+00
  0.00000000E+00  0.00000000E+00  0.00000000E+00
  0.00000000E+00  0.00000000E+00  0.00000000E+00
  0.00000000E+00  0.00000000E+00  0.00000000E+00
  0.00000000E+00  0.00000000E+00  0.00000000E+00
  0.00000000E+00  0.00000000E+00  0.00000000E+00
  0.00000000E+00  0.00000000E+00  0.00000000E+00
  0.00000000E+00  0.00000000E+00  0.00000000E+00
  0.00000000E+00  0.00000000E+00  0.00000000E+00
  0.00000000E+00  0.00000000E+00  0.00000000E+00
  0.00000000E+00  0.00000000E+00  0.00000000E+00
  0.00000000E+00  0.00000000E+00  0.00000000E+00
  0.00000000E+00  0.00000000E+00  0.00000000E+00
  0.00000000E+00  0.00000000E+00  0.00000000E+00
  0.00000000E+00  0.00000000E+00  0.00000000E+00
  0.00000000E+00  0.00000000E+00  0.00000000E+00
  0.00000000E+00  0.00000000E+00  0.00000000E+00
  0.00000000E+00  0.00000000E+00  0.00000000E+00
  0.00000000E+00  0.00000000E+00  0.00000000E+00
  0.00000000E+00  0.00000000E+00  0.00000000E+00
  0.00000000E+00  0.00000000E+00  0.00000000E+00
  0.00000000E+00  0.00000000E+00  0.00000000E+00
  0.00000000E+00  0.00000000E+00  0.00000000E+00
  0.00000000E+00  0.00000000E+00  0.00000000E+00
  0.00000000E+00  0.00000000E+00  0.00000000E+00
  0.00000000E+00  0.00000000E+00  0.00000000E+00
  0.00000000E+00  0.00000000E+00  0.00000000E+00
  0.00000000E+00  0.00000000E+00  0.00000000E+00
  0.00000000E+00  0.00000000E+00  0.00000000E+00
  0.00000000E+00  0.00000000E+00  0.00000000E+00
  0.00000000E+00  0.00000000E+00  0.00000000E+00
  0.00000000E+00  0.00000000E+00  0.00000000E+00
  0.00000000E+00  0.00000000E+00  0.00000000E+00
  0.00000000E+00  0.00000000E+00  0.00000000E+00
  0.00000000E+00  0.00000000E+00  0.00000000E+00
