This file is generated by VASPKIT code  
    1.000000000000000     
    12.9960000000000004    0.0000000000000000    0.0000000000000000
     0.0000000000000000   11.2548661479999996    0.0000000000000000
     0.0000000000000000    0.0000000000000000   10.4097960000000000
   Zn   O 
    64    63
Direct
  0.9994377892487835  0.1665552588431116  0.4996011021807886
  0.9996967198599449  0.1667929035432966  0.9991329795075194
  0.9983202868206636  0.6665723870746200  0.4998477167990174
  0.9993394173849874  0.6673666166401323  0.9999328023110765
  0.9994062576356886  0.3326343974440294  0.2494756495644605
  0.9994480362447484  0.3325868812269198  0.7499133135951296
  0.9995969823228461  0.8333208324982516  0.2496012406726066
  0.9998283744887222  0.8332215717194552  0.7496164861852874
  0.1236553672770535  0.4158608340099342  0.5014123663468517
  0.1235770227464767  0.5824755657577533  0.2492217012322195
  0.1248222909016769  0.0830075350613378  0.7497072457012364
  0.1241115507779680  0.4165148094092249  0.0002808636329149
  0.1243528446881263  0.0832841394939781  0.2486822875364253
  0.1242075389799771  0.9173593517005945  0.9998049030129925
  0.1238696751870104  0.5823987792456805  0.7518850504792965
  0.1238340705222668  0.9181157678358183  0.4996329197174192
  0.2501010061175870  0.8348439541651863  0.7519137947107150
  0.2496997585286016  0.1664264100448394  0.0000885673596753
  0.2485809086420306  0.3323773094043103  0.2491134907115889
  0.2497121592800801  0.8349381162309586  0.2489883876548951
  0.2486975467648145  0.6678085041208700  0.9996895664261263
  0.2489560468541487  0.1655660825300299  0.4999501107904274
  0.2487199624313316  0.3327065389111522  0.7517814141091880
  0.2394288483729894  0.6737744525491266  0.5056411507514249
  0.3749963612037517  0.5834035375819135  0.7528315691795280
  0.3750007664063225  0.4031291600413915  0.5055098259090992
  0.3750041358873204  0.9183308782940378  0.5011878196874485
  0.3750041690757817  0.5830405088472386  0.2335802567045085
  0.3750003261392681  0.4154422273125097  0.9994449037105998
  0.3750003538344416  0.0835135891544885  0.2499647329684925
  0.3750016166426031  0.0838670831689495  0.7503307292156991
  0.3749983672882820  0.9178755572396151  0.0004268670230486
  0.5105692566870604  0.6737678032234488  0.5056451952594386
  0.5012784010301730  0.3327045194923903  0.7517857242885285
  0.5010333793767466  0.1655652011129735  0.4999513422200696
  0.5013078640362555  0.6678065451336099  0.9996916880902460
  0.5002846186089011  0.8349343742949447  0.2489917730675062
  0.5014196407991742  0.3323726315184535  0.2491108527069828
  0.5003021433560824  0.1664248924534319  0.0000826146682193
  0.4998979584635230  0.8348323163809130  0.7519169562397817
  0.6261653081819687  0.9181131539740970  0.4996418616691632
  0.6261305460979253  0.5823894163262779  0.7518802192952860
  0.6257957705412759  0.9173784970431967  0.9998105614702320
  0.6256423693069614  0.0832814303813841  0.2486847127869295
  0.6258869393789387  0.4165182675836428  0.0002792427834759
  0.6251786313521570  0.0830027688309103  0.7497097884557375
  0.6264197200490815  0.5824708125111873  0.2492285852797295
  0.6263487996853189  0.4158558150272578  0.5014162203485273
  0.7516888395281716  0.6665734124172010  0.4998510627884839
  0.7506590508634731  0.6673571923282335  0.9999359307157090
  0.7505585315308738  0.1665534037853442  0.4995976304413802
  0.7505543475587106  0.3325899330541341  0.7499134954379584
  0.7505899091435001  0.3326299269906337  0.2494830587882126
  0.7504045253543994  0.8333205094727238  0.2495997379774712
  0.7501750309799352  0.8332182241470096  0.7496216589940918
  0.7502930651351934  0.1667960228882760  0.9991346867209155
  0.8750052069353580  0.4160133866679143  0.4997403734036347
  0.8749998272860428  0.4169379388270515  0.9994528779715486
  0.8749975968332572  0.9168458072940209  0.4993024633144685
  0.8749982257899812  0.9170653306373925  0.9992717625061778
  0.8749978379030696  0.0829567544563409  0.2489235889712414
  0.8749925366661531  0.0828248483476721  0.7492989723860194
  0.8750007702471166  0.5827688347473204  0.2487946236679958
  0.8750071526884653  0.5829324717271228  0.7498068910668716
  0.9998848649587774  0.1665947348750897  0.1896936499300955
  0.0000601746205911  0.6666864470656726  0.1905237207206902
  0.0004563391563618  0.6663117015166138  0.6899450563953650
  0.0001518707584674  0.3331871473137213  0.4400864079495299
  0.9999526846263875  0.3334630285761102  0.9401357103649786
  0.0003646977546137  0.8326872105605178  0.4403265084074320
  0.0000599828741369  0.8334008755570627  0.9399495860065190
  0.0001479662813080  0.1663421713703762  0.6899174433432859
  0.1248350802891831  0.4165922127275024  0.1907783456624447
  0.1250894233113804  0.4167355941966721  0.6910692987751640
  0.1251101991485705  0.0835609472469861  0.9399956968401323
  0.1255068709680809  0.9160530980184539  0.6897339080179820
  0.1248822897631845  0.9163689543437906  0.1903976167779261
  0.1250354320050724  0.5835695634536836  0.9415628259239074
  0.1249056828081408  0.0835969155865180  0.4394713942876715
  0.1258007293821361  0.5827057803680724  0.4403761771056326
  0.2500787808354918  0.8336386309335871  0.9416352733901844
  0.2500509256008612  0.1665954711708549  0.1907198247308119
  0.2501102476466027  0.1672344691752480  0.6900495224524219
  0.2499604435624095  0.3337104300307150  0.9415280512012847
  0.2506691097607238  0.6663322739028731  0.6908519488725582
  0.2509246036200138  0.8330574872421794  0.4402787811491379
  0.2499840988324522  0.3346773359278759  0.4403267424230820
  0.2501395177267302  0.6665264261387526  0.1931235314729315
  0.3750010341721298  0.5837077009332411  0.9435511350353384
  0.3749961313202428  0.0842359512681040  0.4407174675717649
  0.3749992780323499  0.4175957161075973  0.6908208053494939
  0.3750016042167649  0.4166097066396643  0.1929501239395808
  0.3749994811478474  0.9167471306269492  0.1909844506005474
  0.3750021404176340  0.9167211789272042  0.6909847859537325
  0.3749998492040023  0.0839078136391107  0.9404724632046367
  0.4998667053723858  0.6665232043414535  0.1931248090038027
  0.5000177131106541  0.3346771277348561  0.4403259147996197
  0.4990776648817878  0.8330513537714367  0.4402808821306840
  0.4993298993170941  0.6663246923445153  0.6908536778720995
  0.5000391827907344  0.3337094948678500  0.9415271544348527
  0.4998923197828524  0.1672313930978343  0.6900499692794089
  0.4999486621726195  0.1665945673647129  0.1907158085343902
  0.4999188965862831  0.8336361947310574  0.9416398622023501
  0.6242051255650309  0.5827034576698835  0.4403849269790032
  0.6250884556807711  0.0835956271710933  0.4394756259048058
  0.6249644512065647  0.5835674553642547  0.9415560900091475
  0.6251161023279722  0.9163663702367126  0.1904030235908798
  0.6244945244382124  0.9160446652811660  0.6897419051059592
  0.6248880110313358  0.0835529152336593  0.9399966848916484
  0.6249091088601381  0.4167294870671877  0.6910702645861980
  0.6251657011689754  0.4165905483062540  0.1907762775491545
  0.7495421006258444  0.6663107631181245  0.6899489979472681
  0.7498535183881314  0.3331874353927987  0.4400891463868890
  0.7499384662322928  0.6666822172496474  0.1905246412315677
  0.7496340321809187  0.8326857792973142  0.4403257975222595
  0.7500453456079641  0.3334644220360688  0.9401325170725513
  0.7501077232300414  0.1665927676091999  0.1896939987078231
  0.7498465001191954  0.1663441739136897  0.6899139796128727
  0.7499391720428592  0.8333940323034913  0.9399539189967386
  0.8749965834994253  0.4165082496258473  0.1899425499967702
  0.8750016244967768  0.4165790686820006  0.6899827471598683
  0.8749996327958813  0.9163428039909540  0.1898828814415407
  0.8749995123919337  0.9161301231649720  0.6896026551817227
  0.8749993904417839  0.0830225888243476  0.4395768320568154
  0.8749926003021758  0.0833545940680121  0.9396355518956085
  0.8750025065300852  0.5825274479176265  0.4395758098886334
  0.8750005788230282  0.5835712919236897  0.9400623195334764
 
  0.00000000E+00  0.00000000E+00  0.00000000E+00
  0.00000000E+00  0.00000000E+00  0.00000000E+00
  0.00000000E+00  0.00000000E+00  0.00000000E+00
  0.00000000E+00  0.00000000E+00  0.00000000E+00
  0.00000000E+00  0.00000000E+00  0.00000000E+00
  0.00000000E+00  0.00000000E+00  0.00000000E+00
  0.00000000E+00  0.00000000E+00  0.00000000E+00
  0.00000000E+00  0.00000000E+00  0.00000000E+00
  0.00000000E+00  0.00000000E+00  0.00000000E+00
  0.00000000E+00  0.00000000E+00  0.00000000E+00
  0.00000000E+00  0.00000000E+00  0.00000000E+00
  0.00000000E+00  0.00000000E+00  0.00000000E+00
  0.00000000E+00  0.00000000E+00  0.00000000E+00
  0.00000000E+00  0.00000000E+00  0.00000000E+00
  0.00000000E+00  0.00000000E+00  0.00000000E+00
  0.00000000E+00  0.00000000E+00  0.00000000E+00
  0.00000000E+00  0.00000000E+00  0.00000000E+00
  0.00000000E+00  0.00000000E+00  0.00000000E+00
  0.00000000E+00  0.00000000E+00  0.00000000E+00
  0.00000000E+00  0.00000000E+00  0.00000000E+00
  0.00000000E+00  0.00000000E+00  0.00000000E+00
  0.00000000E+00  0.00000000E+00  0.00000000E+00
  0.00000000E+00  0.00000000E+00  0.00000000E+00
  0.00000000E+00  0.00000000E+00  0.00000000E+00
  0.00000000E+00  0.00000000E+00  0.00000000E+00
  0.00000000E+00  0.00000000E+00  0.00000000E+00
  0.00000000E+00  0.00000000E+00  0.00000000E+00
  0.00000000E+00  0.00000000E+00  0.00000000E+00
  0.00000000E+00  0.00000000E+00  0.00000000E+00
  0.00000000E+00  0.00000000E+00  0.00000000E+00
  0.00000000E+00  0.00000000E+00  0.00000000E+00
  0.00000000E+00  0.00000000E+00  0.00000000E+00
  0.00000000E+00  0.00000000E+00  0.00000000E+00
  0.00000000E+00  0.00000000E+00  0.00000000E+00
  0.00000000E+00  0.00000000E+00  0.00000000E+00
  0.00000000E+00  0.00000000E+00  0.00000000E+00
  0.00000000E+00  0.00000000E+00  0.00000000E+00
  0.00000000E+00  0.00000000E+00  0.00000000E+00
  0.00000000E+00  0.00000000E+00  0.00000000E+00
  0.00000000E+00  0.00000000E+00  0.00000000E+00
  0.00000000E+00  0.00000000E+00  0.00000000E+00
  0.00000000E+00  0.00000000E+00  0.00000000E+00
  0.00000000E+00  0.00000000E+00  0.00000000E+00
  0.00000000E+00  0.00000000E+00  0.00000000E+00
  0.00000000E+00  0.00000000E+00  0.00000000E+00
  0.00000000E+00  0.00000000E+00  0.00000000E+00
  0.00000000E+00  0.00000000E+00  0.00000000E+00
  0.00000000E+00  0.00000000E+00  0.00000000E+00
  0.00000000E+00  0.00000000E+00  0.00000000E+00
  0.00000000E+00  0.00000000E+00  0.00000000E+00
  0.00000000E+00  0.00000000E+00  0.00000000E+00
  0.00000000E+00  0.00000000E+00  0.00000000E+00
  0.00000000E+00  0.00000000E+00  0.00000000E+00
  0.00000000E+00  0.00000000E+00  0.00000000E+00
  0.00000000E+00  0.00000000E+00  0.00000000E+00
  0.00000000E+00  0.00000000E+00  0.00000000E+00
  0.00000000E+00  0.00000000E+00  0.00000000E+00
  0.00000000E+00  0.00000000E+00  0.00000000E+00
  0.00000000E+00  0.00000000E+00  0.00000000E+00
  0.00000000E+00  0.00000000E+00  0.00000000E+00
  0.00000000E+00  0.00000000E+00  0.00000000E+00
  0.00000000E+00  0.00000000E+00  0.00000000E+00
  0.00000000E+00  0.00000000E+00  0.00000000E+00
  0.00000000E+00  0.00000000E+00  0.00000000E+00
  0.00000000E+00  0.00000000E+00  0.00000000E+00
  0.00000000E+00  0.00000000E+00  0.00000000E+00
  0.00000000E+00  0.00000000E+00  0.00000000E+00
  0.00000000E+00  0.00000000E+00  0.00000000E+00
  0.00000000E+00  0.00000000E+00  0.00000000E+00
  0.00000000E+00  0.00000000E+00  0.00000000E+00
  0.00000000E+00  0.00000000E+00  0.00000000E+00
  0.00000000E+00  0.00000000E+00  0.00000000E+00
  0.00000000E+00  0.00000000E+00  0.00000000E+00
  0.00000000E+00  0.00000000E+00  0.00000000E+00
  0.00000000E+00  0.00000000E+00  0.00000000E+00
  0.00000000E+00  0.00000000E+00  0.00000000E+00
  0.00000000E+00  0.00000000E+00  0.00000000E+00
  0.00000000E+00  0.00000000E+00  0.00000000E+00
  0.00000000E+00  0.00000000E+00  0.00000000E+00
  0.00000000E+00  0.00000000E+00  0.00000000E+00
  0.00000000E+00  0.00000000E+00  0.00000000E+00
  0.00000000E+00  0.00000000E+00  0.00000000E+00
  0.00000000E+00  0.00000000E+00  0.00000000E+00
  0.00000000E+00  0.00000000E+00  0.00000000E+00
  0.00000000E+00  0.00000000E+00  0.00000000E+00
  0.00000000E+00  0.00000000E+00  0.00000000E+00
  0.00000000E+00  0.00000000E+00  0.00000000E+00
  0.00000000E+00  0.00000000E+00  0.00000000E+00
  0.00000000E+00  0.00000000E+00  0.00000000E+00
  0.00000000E+00  0.00000000E+00  0.00000000E+00
  0.00000000E+00  0.00000000E+00  0.00000000E+00
  0.00000000E+00  0.00000000E+00  0.00000000E+00
  0.00000000E+00  0.00000000E+00  0.00000000E+00
  0.00000000E+00  0.00000000E+00  0.00000000E+00
  0.00000000E+00  0.00000000E+00  0.00000000E+00
  0.00000000E+00  0.00000000E+00  0.00000000E+00
  0.00000000E+00  0.00000000E+00  0.00000000E+00
  0.00000000E+00  0.00000000E+00  0.00000000E+00
  0.00000000E+00  0.00000000E+00  0.00000000E+00
  0.00000000E+00  0.00000000E+00  0.00000000E+00
  0.00000000E+00  0.00000000E+00  0.00000000E+00
  0.00000000E+00  0.00000000E+00  0.00000000E+00
  0.00000000E+00  0.00000000E+00  0.00000000E+00
  0.00000000E+00  0.00000000E+00  0.00000000E+00
  0.00000000E+00  0.00000000E+00  0.00000000E+00
  0.00000000E+00  0.00000000E+00  0.00000000E+00
  0.00000000E+00  0.00000000E+00  0.00000000E+00
  0.00000000E+00  0.00000000E+00  0.00000000E+00
  0.00000000E+00  0.00000000E+00  0.00000000E+00
  0.00000000E+00  0.00000000E+00  0.00000000E+00
  0.00000000E+00  0.00000000E+00  0.00000000E+00
  0.00000000E+00  0.00000000E+00  0.00000000E+00
  0.00000000E+00  0.00000000E+00  0.00000000E+00
  0.00000000E+00  0.00000000E+00  0.00000000E+00
  0.00000000E+00  0.00000000E+00  0.00000000E+00
  0.00000000E+00  0.00000000E+00  0.00000000E+00
  0.00000000E+00  0.00000000E+00  0.00000000E+00
  0.00000000E+00  0.00000000E+00  0.00000000E+00
  0.00000000E+00  0.00000000E+00  0.00000000E+00
  0.00000000E+00  0.00000000E+00  0.00000000E+00
  0.00000000E+00  0.00000000E+00  0.00000000E+00
  0.00000000E+00  0.00000000E+00  0.00000000E+00
  0.00000000E+00  0.00000000E+00  0.00000000E+00
  0.00000000E+00  0.00000000E+00  0.00000000E+00
  0.00000000E+00  0.00000000E+00  0.00000000E+00
  0.00000000E+00  0.00000000E+00  0.00000000E+00
  0.00000000E+00  0.00000000E+00  0.00000000E+00
