This file is generated by VASPKIT code
 1.000000
   16.2450000000000010    0.0000000000000000    0.0000000000000000
    0.0000000000000000   16.8822992220000003    0.0000000000000000
    0.0000000000000000    0.0000000000000000   15.6146940000000001
   Zn   O 
   180   179
Direct
2e-16   0.2666666666666667   0.4333333333333333
2e-16   0.2666666666666667   0.7666666666666667
2e-16   0.2666666666666667   0.1
2e-16   0.6   0.4333333333333333
2e-16   0.6   0.7666666666666667
2e-16   0.6   0.1
2e-16   0.9333333333333333   0.4333333333333333
2e-16   0.9333333333333333   0.7666666666666667
2e-16   0.9333333333333333   0.1
1.1e-07   0.0444443833333334   0.2666666666666666
1.1e-07   0.0444443833333334   0.6000000000000001
1.1e-07   0.0444443833333334   0.9333333333333333
1.1e-07   0.3777777166666668   0.2666666666666666
1.1e-07   0.3777777166666668   0.6000000000000001
1.1e-07   0.3777777166666668   0.9333333333333333
1.1e-07   0.71111105   0.2666666666666666
1.1e-07   0.71111105   0.6000000000000001
1.1e-07   0.71111105   0.9333333333333333
0.1   0.1   0.7666666666666667
0.1   0.4333333333333334   0.7666666666666667
0.1   0.7666666666666667   0.4333333333333333
0.1   0.7666666666666667   0.7666666666666667
0.1   0.7666666666666667   0.1
0.10000011   0.2111110500000001   0.9333333333333333
0.10000011   0.5444443833333333   0.9333333333333333
0.10000011   0.8777777166666666   0.2666666666666666
0.10000011   0.8777777166666666   0.6000000000000001
0.10000011   0.8777777166666666   0.9333333333333333
0.2   0.2666666666666667   0.7666666666666667
0.2   0.6   0.7666666666666667
0.2   0.9333333333333333   0.4333333333333333
0.2   0.9333333333333333   0.7666666666666667
0.2   0.9333333333333333   0.1
0.20000011   0.0444443833333334   0.9333333333333333
0.20000011   0.3777777166666668   0.9333333333333333
0.20000011   0.71111105   0.2666666666666666
0.20000011   0.71111105   0.6000000000000001
0.20000011   0.71111105   0.9333333333333333
0.3   0.1   0.7666666666666667
0.3   0.4333333333333334   0.7666666666666667
0.3   0.7666666666666667   0.4333333333333333
0.3   0.7666666666666667   0.7666666666666667
0.3   0.7666666666666667   0.1
0.30000011   0.2111110500000001   0.9333333333333333
0.30000011   0.5444443833333333   0.9333333333333333
0.30000011   0.8777777166666666   0.2666666666666666
0.30000011   0.8777777166666666   0.6000000000000001
0.30000011   0.8777777166666666   0.9333333333333333
0.4   0.2666666666666667   0.7666666666666667
0.4   0.6   0.7666666666666667
0.4   0.9333333333333333   0.4333333333333333
0.4   0.9333333333333333   0.7666666666666667
0.4   0.9333333333333333   0.1
0.40000011   0.0444443833333334   0.9333333333333333
0.40000011   0.3777777166666668   0.9333333333333333
0.40000011   0.71111105   0.2666666666666666
0.40000011   0.71111105   0.6000000000000001
0.40000011   0.71111105   0.9333333333333333
0.5   0.1   0.7666666666666667
0.5   0.4333333333333334   0.7666666666666667
0.5   0.7666666666666667   0.4333333333333333
0.5   0.7666666666666667   0.7666666666666667
0.5   0.7666666666666667   0.1
0.5000001100000001   0.2111110500000001   0.9333333333333333
0.5000001100000001   0.5444443833333333   0.9333333333333333
0.5000001100000001   0.8777777166666666   0.2666666666666666
0.5000001100000001   0.8777777166666666   0.6000000000000001
0.5000001100000001   0.8777777166666666   0.9333333333333333
0.6   0.2666666666666667   0.7666666666666667
0.6   0.6   0.7666666666666667
0.6   0.9333333333333333   0.4333333333333333
0.6   0.9333333333333333   0.7666666666666667
0.6   0.9333333333333333   0.1
0.60000011   0.0444443833333334   0.9333333333333333
0.60000011   0.3777777166666668   0.9333333333333333
0.60000011   0.71111105   0.2666666666666666
0.60000011   0.71111105   0.6000000000000001
0.60000011   0.71111105   0.9333333333333333
0.7   0.1   0.7666666666666667
0.7   0.4333333333333334   0.7666666666666667
0.7   0.7666666666666667   0.4333333333333333
0.7   0.7666666666666667   0.7666666666666667
0.7   0.7666666666666667   0.1
0.7000001100000001   0.2111110500000001   0.9333333333333333
0.7000001100000001   0.5444443833333333   0.9333333333333333
0.7000001100000001   0.8777777166666666   0.2666666666666666
0.7000001100000001   0.8777777166666666   0.6000000000000001
0.7000001100000001   0.8777777166666666   0.9333333333333333
0.8   0.2666666666666667   0.7666666666666667
0.8   0.6   0.7666666666666667
0.8   0.9333333333333333   0.4333333333333333
0.8   0.9333333333333333   0.7666666666666667
0.8   0.9333333333333333   0.1
0.8000001099999999   0.0444443833333334   0.9333333333333333
0.8000001099999999   0.3777777166666668   0.9333333333333333
0.8000001099999999   0.71111105   0.2666666666666666
0.8000001099999999   0.71111105   0.6000000000000001
0.8000001099999999   0.71111105   0.9333333333333333
0.9   0.1   0.4333333333333333
0.9   0.1   0.7666666666666667
0.9   0.1   0.1
0.9   0.4333333333333334   0.4333333333333333
0.9   0.4333333333333334   0.7666666666666667
0.9   0.4333333333333334   0.1
0.9   0.7666666666666667   0.4333333333333333
0.9   0.7666666666666667   0.7666666666666667
0.9   0.7666666666666667   0.1
0.90000011   0.2111110500000001   0.2666666666666666
0.90000011   0.2111110500000001   0.6000000000000001
0.90000011   0.2111110500000001   0.9333333333333333
0.90000011   0.5444443833333333   0.2666666666666666
0.90000011   0.5444443833333333   0.6000000000000001
0.90000011   0.5444443833333333   0.9333333333333333
0.90000011   0.8777777166666666   0.2666666666666666
0.90000011   0.8777777166666666   0.6000000000000001
0.90000011   0.8777777166666666   0.9333333333333333
  0.0988988535685749  0.4331863223542156  0.4338098248609986
  0.0997141580200340  0.4337158087312238  0.1005332152023714
  0.0997676302205949  0.2105609959338219  0.2668951133712940
  0.0997928555110708  0.0998415701998767  0.4336454151155127
  0.0998010531078428  0.2105293184557488  0.6005202227250733
  0.0999202099703210  0.5443519526366367  0.2669788407767247
  0.1000000000000000  0.1000000000000000  0.1000000000000000
  0.1001053237030218  0.5442857787841058  0.6003223377851786
  0.1991042423092254  0.3771217748096378  0.2667258144831333
  0.1991669179336868  0.2660452869777584  0.4348529245595548
  0.1993098805298575  0.6008819095283479  0.4336666268065998
  0.1993383642616524  0.3770705838015893  0.6018347139811847
  0.1995318647344184  0.2664812705772855  0.1007652560835969
  0.1996086552960257  0.6003776321048653  0.1004479490036487
  0.1997248998625450  0.0443274906337877  0.2663662053526038
  0.2001004568333856  0.0441430876786941  0.6003828441291446
  0.2917857028104355  0.4379876993372200  0.4376721141626036
  0.2991073510256685  0.2103896039073425  0.2666536741360462
  0.2992006615238956  0.4340104003850489  0.1003710579457379
  0.2992185940571093  0.2106090902452371  0.6017656230677789
  0.2994074615953630  0.0991821193244889  0.4338780875219386
  0.3000024309349253  0.0997556710010285  0.1006370585681038
  0.3000123515361081  0.5454301417917747  0.2665702720982503
  0.3003234290061136  0.5453673670812599  0.6018538768021303
  0.4002397130750454  0.3777404226924113  0.6024657264480057
  0.4002413179426696  0.6007217691308790  0.1008625916770194
  0.4002428850234585  0.2657662158461420  0.1002079494687202
  0.4002429071795973  0.0444804570741279  0.2672211689739820
  0.4002432372371020  0.2575575043320633  0.4375845642677198
  0.4002439174261265  0.0447161197504353  0.6007984998054531
  0.4002459328219004  0.6010253165004942  0.4347032267866193
  0.4002459593726694  0.3774984035359613  0.2562981847979927
  0.5001609908828624  0.5453596085584110  0.6018559844881748
  0.5004703189991648  0.5454276471677654  0.2665725290399911
  0.5004843387969099  0.0997546592734235  0.1006330901071332
  0.5010693276134413  0.0991815317131179  0.4338789084750334
  0.5012653449361824  0.2106077439660625  0.6017684965206727
  0.5012889153410484  0.4340090943935422  0.1003724723884844
  0.5013783367513833  0.2103864853167713  0.2666519154663088
  0.5086980294616923  0.4379832664534348  0.4376748105012794
  0.6003855291937696  0.0441399101917425  0.6003845392988120
  0.6007565195576131  0.0443256845587250  0.2663678221862733
  0.6008792405450647  0.6003903956666001  0.1004517213084750
  0.6009521756151950  0.2664835760268974  0.1007641755173042
  0.6011470609903843  0.3770643418553209  0.6018314931918444
  0.6011748706576190  0.6008801669538669  0.4336725881077625
  0.6013216638602991  0.2660419409893074  0.4348554938940052
  0.6013784001513093  0.3771186059785938  0.2667304038481400
  0.7003826488959922  0.5442835470691421  0.6003257863243815
  0.7004770762201987  0.1000020795633196  0.1000011381422640
  0.7005662443955635  0.5443517372862848  0.2669778389799678
  0.7006861021590125  0.2105313530072250  0.6005203439536259
  0.7006894493367430  0.0998403334946984  0.4336431006225738
  0.7007145514268441  0.2105580156315581  0.2669000528537954
  0.7007698648028224  0.4337095258566246  0.1005353008054597
  0.7015936957345813  0.4331870059159363  0.4338120555206429
  0.8002366534449664  0.0440212965362503  0.6001106619189999
  0.8002407015786498  0.6000352691671496  0.4334463225379659
  0.8002408944344997  0.0441092339420295  0.2665270729758146
  0.8002412047440289  0.6001816180627306  0.1000925219991056
  0.8002424859408782  0.2667633568558366  0.1002132656426861
  0.8002432403097374  0.3773172874693492  0.2664410961069842
  0.8002467896603304  0.2661469887497452  0.4337382625974102
  0.8002483462628163  0.3774263787892175  0.6004492743729014
2e-16   0.2666666666666667   0.2270322426666667
2e-16   0.2666666666666667   0.5603655760000001
2e-16   0.2666666666666667   0.8936989093333333
2e-16   0.6   0.2270322426666667
2e-16   0.6   0.5603655760000001
2e-16   0.6   0.8936989093333333
2e-16   0.9333333333333333   0.2270322426666667
2e-16   0.9333333333333333   0.5603655760000001
2e-16   0.9333333333333333   0.8936989093333333
1.1e-07   0.0444443833333334   0.3936989093333334
1.1e-07   0.0444443833333334   0.7270322426666667
1.1e-07   0.0444443833333334   0.0603655759999999
1.1e-07   0.3777777166666668   0.3936989093333334
1.1e-07   0.3777777166666668   0.7270322426666667
1.1e-07   0.3777777166666668   0.0603655759999999
1.1e-07   0.71111105   0.3936989093333334
1.1e-07   0.71111105   0.7270322426666667
1.1e-07   0.71111105   0.0603655759999999
0.1   0.1   0.8936989093333333
0.1   0.4333333333333334   0.8936989093333333
0.1   0.7666666666666667   0.2270322426666667
0.1   0.7666666666666667   0.5603655760000001
0.1   0.7666666666666667   0.8936989093333333
0.10000011   0.2111110500000001   0.7270322426666667
0.10000011   0.5444443833333333   0.7270322426666667
0.10000011   0.8777777166666666   0.3936989093333334
0.10000011   0.8777777166666666   0.7270322426666667
0.10000011   0.8777777166666666   0.0603655759999999
0.2   0.2666666666666667   0.8936989093333333
0.2   0.6   0.8936989093333333
0.2   0.9333333333333333   0.2270322426666667
0.2   0.9333333333333333   0.5603655760000001
0.2   0.9333333333333333   0.8936989093333333
0.20000011   0.0444443833333334   0.7270322426666667
0.20000011   0.3777777166666668   0.7270322426666667
0.20000011   0.71111105   0.3936989093333334
0.20000011   0.71111105   0.7270322426666667
0.20000011   0.71111105   0.0603655759999999
0.3   0.1   0.8936989093333333
0.3   0.4333333333333334   0.8936989093333333
0.3   0.7666666666666667   0.2270322426666667
0.3   0.7666666666666667   0.5603655760000001
0.3   0.7666666666666667   0.8936989093333333
0.30000011   0.2111110500000001   0.7270322426666667
0.30000011   0.5444443833333333   0.7270322426666667
0.30000011   0.8777777166666666   0.3936989093333334
0.30000011   0.8777777166666666   0.7270322426666667
0.30000011   0.8777777166666666   0.0603655759999999
0.4   0.2666666666666667   0.8936989093333333
0.4   0.6   0.8936989093333333
0.4   0.9333333333333333   0.2270322426666667
0.4   0.9333333333333333   0.5603655760000001
0.4   0.9333333333333333   0.8936989093333333
0.40000011   0.0444443833333334   0.7270322426666667
0.40000011   0.3777777166666668   0.7270322426666667
0.40000011   0.71111105   0.3936989093333334
0.40000011   0.71111105   0.7270322426666667
0.40000011   0.71111105   0.0603655759999999
0.5   0.1   0.8936989093333333
0.5   0.4333333333333334   0.8936989093333333
0.5   0.7666666666666667   0.2270322426666667
0.5   0.7666666666666667   0.5603655760000001
0.5   0.7666666666666667   0.8936989093333333
0.5000001100000001   0.2111110500000001   0.7270322426666667
0.5000001100000001   0.5444443833333333   0.7270322426666667
0.5000001100000001   0.8777777166666666   0.3936989093333334
0.5000001100000001   0.8777777166666666   0.7270322426666667
0.5000001100000001   0.8777777166666666   0.0603655759999999
0.6   0.2666666666666667   0.8936989093333333
0.6   0.6   0.8936989093333333
0.6   0.9333333333333333   0.2270322426666667
0.6   0.9333333333333333   0.5603655760000001
0.6   0.9333333333333333   0.8936989093333333
0.60000011   0.0444443833333334   0.7270322426666667
0.60000011   0.3777777166666668   0.7270322426666667
0.60000011   0.71111105   0.3936989093333334
0.60000011   0.71111105   0.7270322426666667
0.60000011   0.71111105   0.0603655759999999
0.7   0.1   0.8936989093333333
0.7   0.4333333333333334   0.8936989093333333
0.7   0.7666666666666667   0.2270322426666667
0.7   0.7666666666666667   0.5603655760000001
0.7   0.7666666666666667   0.8936989093333333
0.7000001100000001   0.2111110500000001   0.7270322426666667
0.7000001100000001   0.5444443833333333   0.7270322426666667
0.7000001100000001   0.8777777166666666   0.3936989093333334
0.7000001100000001   0.8777777166666666   0.7270322426666667
0.7000001100000001   0.8777777166666666   0.0603655759999999
0.8   0.2666666666666667   0.8936989093333333
0.8   0.6   0.8936989093333333
0.8   0.9333333333333333   0.2270322426666667
0.8   0.9333333333333333   0.5603655760000001
0.8   0.9333333333333333   0.8936989093333333
0.8000001099999999   0.0444443833333334   0.7270322426666667
0.8000001099999999   0.3777777166666668   0.7270322426666667
0.8000001099999999   0.71111105   0.3936989093333334
0.8000001099999999   0.71111105   0.7270322426666667
0.8000001099999999   0.71111105   0.0603655759999999
0.9   0.1   0.2270322426666667
0.9   0.1   0.5603655760000001
0.9   0.1   0.8936989093333333
0.9   0.4333333333333334   0.2270322426666667
0.9   0.4333333333333334   0.5603655760000001
0.9   0.4333333333333334   0.8936989093333333
0.9   0.7666666666666667   0.2270322426666667
0.9   0.7666666666666667   0.5603655760000001
0.9   0.7666666666666667   0.8936989093333333
0.90000011   0.2111110500000001   0.3936989093333334
0.90000011   0.2111110500000001   0.7270322426666667
0.90000011   0.2111110500000001   0.0603655759999999
0.90000011   0.5444443833333333   0.3936989093333334
0.90000011   0.5444443833333333   0.7270322426666667
0.90000011   0.5444443833333333   0.0603655759999999
0.90000011   0.8777777166666666   0.3936989093333334
0.90000011   0.8777777166666666   0.7270322426666667
0.90000011   0.8777777166666666   0.0603655759999999
  0.1001505160790659  0.0998678875545287  0.2270404469483840
  0.1002047718131541  0.2111134166885424  0.0606684872383061
  0.1002906104113535  0.5444053146758441  0.0605444043326664
  0.1002907638085169  0.4332623623482507  0.2275938274754471
  0.1003609971370904  0.0996995118847197  0.5605229758905109
  0.1003641207188179  0.2109294958469498  0.3939689522946736
  0.1005343823157350  0.5439295380114808  0.3941290192666083
  0.1006076954371335  0.4330125319822115  0.5605413845918970
  0.2001106883433905  0.2665328727894706  0.2277635774366168
  0.2001484559225916  0.5997173672003294  0.2275097581802710
  0.2001671703585566  0.0445360080288143  0.3935589431867680
  0.2002709697161019  0.3778511066069247  0.0616198976109252
  0.2003141627611483  0.2666284604355836  0.5612908795117629
  0.2003307834309004  0.0445120291357930  0.0605751448884085
  0.2006481208865087  0.5995067963167716  0.5604006190069749
  0.2008832076177529  0.3772752512165172  0.3941621317320754
  0.3002109789619716  0.2112783509916123  0.0615967144625102
  0.3002299031780058  0.2119229549230529  0.3941291752770417
  0.3002833645927330  0.0998683784183722  0.2277245634821949
  0.3003056487804375  0.5445638182601937  0.0616681959217766
  0.3003308222293262  0.1002943770879676  0.5606110286299349
  0.3003542382934282  0.4331556817303039  0.2293270346436079
  0.3007779119206231  0.4330262469063844  0.5611459795766924
  0.3009823070080551  0.5441763891325886  0.3940972010944122
  0.4002395291682382  0.0449620318165383  0.3943896587094969
  0.4002420465379239  0.2672018750428672  0.5611252172279829
  0.4002422090303219  0.5999694847224352  0.2279009807286853
  0.4002425034752459  0.0447432733972094  0.0608929891314114
  0.4002434514497479  0.3779431982599630  0.0629454370185459
  0.4002439074854560  0.2665445353975785  0.2292114296213742
  0.4002443364461512  0.5999521835892717  0.5612345376308087
  0.4995047560174743  0.5441723001520934  0.3940986017487764
  0.4997065435657193  0.4330211925341458  0.5611471322430533
  0.5001359884099527  0.4331535338654380  0.2293278863308554
  0.5001564799383259  0.1002923263696918  0.5606113265145929
  0.5001777413810704  0.5445621941251739  0.0616712551298871
  0.5002015538501396  0.0998677758809442  0.2277218860179138
  0.5002567946005673  0.2119228161277063  0.3941286235280668
  0.5002739703446315  0.2112777275497023  0.0615961166182222
  0.5996067245640687  0.3772737027510580  0.3941679649809891
  0.5998382436626140  0.5995011744919130  0.5604059503989598
  0.6001530329371126  0.0445066744602418  0.0605758035894193
  0.6001699112001545  0.2666243890159274  0.5612915233857857
  0.6002141850772958  0.3778497012139721  0.0616154070010854
  0.6003133886566608  0.0445351490851978  0.3935617642648575
  0.6003355059744218  0.5997156444622774  0.2275133627222402
  0.6003751850472243  0.2665317631753049  0.2277621986944233
  0.6998763046127195  0.4330119063832186  0.5605440122931656
  0.6999498498567790  0.5439285838360118  0.3941285453431600
  0.7001198242074004  0.0997008469135954  0.5605206667369022
  0.7001254388225492  0.2109296878996681  0.3939707779195796
  0.7001933970978782  0.4332595424709005  0.2275944411493654
  0.7001939617463314  0.5444007525067965  0.0605472929928127
  0.7002789005984152  0.2111143456618481  0.0606663583766878
  0.7003288026960771  0.0998665760439355  0.2270406794668690
  0.8002367043537847  0.0443744603498103  0.0603350482587261
  0.8002398909115843  0.2664768973883671  0.2272063803261671
  0.8002421364654712  0.0441531235207007  0.3936292350328639
  0.8002422340255910  0.5995581464144503  0.5603131171161354
  0.8002423303487490  0.5996999336317717  0.2271666012893475
  0.8002430871704665  0.3778522589202621  0.0606195600173046
  0.8002439237094654  0.2665241100924693  0.5605665117682325
  0.8002446293361122  0.3771563629162199  0.3936285535874093
