This file is generated by VASPKIT code
 1.000000
   16.2450000000000010    0.0000000000000000    0.0000000000000000
    0.0000000000000000   16.8822992220000003    0.0000000000000000
    0.0000000000000000    0.0000000000000000   15.6146940000000001
   Zn   O 
   180   179
Direct
2e-16   0.2666666666666667   0.4333333333333333
2e-16   0.2666666666666667   0.7666666666666667
2e-16   0.2666666666666667   0.1
2e-16   0.6   0.4333333333333333
2e-16   0.6   0.7666666666666667
2e-16   0.6   0.1
2e-16   0.9333333333333333   0.4333333333333333
2e-16   0.9333333333333333   0.7666666666666667
2e-16   0.9333333333333333   0.1
1.1e-07   0.0444443833333334   0.2666666666666666
1.1e-07   0.0444443833333334   0.6000000000000001
1.1e-07   0.0444443833333334   0.9333333333333333
1.1e-07   0.3777777166666668   0.2666666666666666
1.1e-07   0.3777777166666668   0.6000000000000001
1.1e-07   0.3777777166666668   0.9333333333333333
1.1e-07   0.71111105   0.2666666666666666
1.1e-07   0.71111105   0.6000000000000001
1.1e-07   0.71111105   0.9333333333333333
0.1   0.1   0.7666666666666667
0.1   0.4333333333333334   0.7666666666666667
0.1   0.7666666666666667   0.4333333333333333
0.1   0.7666666666666667   0.7666666666666667
0.1   0.7666666666666667   0.1
0.10000011   0.2111110500000001   0.9333333333333333
0.10000011   0.5444443833333333   0.9333333333333333
0.10000011   0.8777777166666666   0.2666666666666666
0.10000011   0.8777777166666666   0.6000000000000001
0.10000011   0.8777777166666666   0.9333333333333333
0.2   0.2666666666666667   0.7666666666666667
0.2   0.6   0.7666666666666667
0.2   0.9333333333333333   0.4333333333333333
0.2   0.9333333333333333   0.7666666666666667
0.2   0.9333333333333333   0.1
0.20000011   0.0444443833333334   0.9333333333333333
0.20000011   0.3777777166666668   0.9333333333333333
0.20000011   0.71111105   0.2666666666666666
0.20000011   0.71111105   0.6000000000000001
0.20000011   0.71111105   0.9333333333333333
0.3   0.1   0.7666666666666667
0.3   0.4333333333333334   0.7666666666666667
0.3   0.7666666666666667   0.4333333333333333
0.3   0.7666666666666667   0.7666666666666667
0.3   0.7666666666666667   0.1
0.30000011   0.2111110500000001   0.9333333333333333
0.30000011   0.5444443833333333   0.9333333333333333
0.30000011   0.8777777166666666   0.2666666666666666
0.30000011   0.8777777166666666   0.6000000000000001
0.30000011   0.8777777166666666   0.9333333333333333
0.4   0.2666666666666667   0.7666666666666667
0.4   0.6   0.7666666666666667
0.4   0.9333333333333333   0.4333333333333333
0.4   0.9333333333333333   0.7666666666666667
0.4   0.9333333333333333   0.1
0.40000011   0.0444443833333334   0.9333333333333333
0.40000011   0.3777777166666668   0.9333333333333333
0.40000011   0.71111105   0.2666666666666666
0.40000011   0.71111105   0.6000000000000001
0.40000011   0.71111105   0.9333333333333333
0.5   0.1   0.7666666666666667
0.5   0.4333333333333334   0.7666666666666667
0.5   0.7666666666666667   0.4333333333333333
0.5   0.7666666666666667   0.7666666666666667
0.5   0.7666666666666667   0.1
0.5000001100000001   0.2111110500000001   0.9333333333333333
0.5000001100000001   0.5444443833333333   0.9333333333333333
0.5000001100000001   0.8777777166666666   0.2666666666666666
0.5000001100000001   0.8777777166666666   0.6000000000000001
0.5000001100000001   0.8777777166666666   0.9333333333333333
0.6   0.2666666666666667   0.7666666666666667
0.6   0.6   0.7666666666666667
0.6   0.9333333333333333   0.4333333333333333
0.6   0.9333333333333333   0.7666666666666667
0.6   0.9333333333333333   0.1
0.60000011   0.0444443833333334   0.9333333333333333
0.60000011   0.3777777166666668   0.9333333333333333
0.60000011   0.71111105   0.2666666666666666
0.60000011   0.71111105   0.6000000000000001
0.60000011   0.71111105   0.9333333333333333
0.7   0.1   0.7666666666666667
0.7   0.4333333333333334   0.7666666666666667
0.7   0.7666666666666667   0.4333333333333333
0.7   0.7666666666666667   0.7666666666666667
0.7   0.7666666666666667   0.1
0.7000001100000001   0.2111110500000001   0.9333333333333333
0.7000001100000001   0.5444443833333333   0.9333333333333333
0.7000001100000001   0.8777777166666666   0.2666666666666666
0.7000001100000001   0.8777777166666666   0.6000000000000001
0.7000001100000001   0.8777777166666666   0.9333333333333333
0.8   0.2666666666666667   0.7666666666666667
0.8   0.6   0.7666666666666667
0.8   0.9333333333333333   0.4333333333333333
0.8   0.9333333333333333   0.7666666666666667
0.8   0.9333333333333333   0.1
0.8000001099999999   0.0444443833333334   0.9333333333333333
0.8000001099999999   0.3777777166666668   0.9333333333333333
0.8000001099999999   0.71111105   0.2666666666666666
0.8000001099999999   0.71111105   0.6000000000000001
0.8000001099999999   0.71111105   0.9333333333333333
0.9   0.1   0.4333333333333333
0.9   0.1   0.7666666666666667
0.9   0.1   0.1
0.9   0.4333333333333334   0.4333333333333333
0.9   0.4333333333333334   0.7666666666666667
0.9   0.4333333333333334   0.1
0.9   0.7666666666666667   0.4333333333333333
0.9   0.7666666666666667   0.7666666666666667
0.9   0.7666666666666667   0.1
0.90000011   0.2111110500000001   0.2666666666666666
0.90000011   0.2111110500000001   0.6000000000000001
0.90000011   0.2111110500000001   0.9333333333333333
0.90000011   0.5444443833333333   0.2666666666666666
0.90000011   0.5444443833333333   0.6000000000000001
0.90000011   0.5444443833333333   0.9333333333333333
0.90000011   0.8777777166666666   0.2666666666666666
0.90000011   0.8777777166666666   0.6000000000000001
0.90000011   0.8777777166666666   0.9333333333333333
  0.0973226549772464  0.4330911949418560  0.4337535764927599
  0.0993039300626629  0.1003760094485820  0.4339125207850870
  0.0994538074641476  0.4339290522985894  0.1014201586146830
  0.0997822375584272  0.2103840229235885  0.6008575122234951
  0.0998594983427351  0.2107429233451101  0.2670039464291661
  0.0999598430985660  0.5446576070635254  0.2669944089575169
  0.1000000000000000  0.1000000000000000  0.1000000000000000
  0.1004106998969354  0.5444129521389972  0.6007745028996483
  0.1978137403712674  0.6031560534687355  0.4336782916929199
  0.1982260702395868  0.3762957609728297  0.6038013372517300
  0.1989963215654538  0.2658136496082947  0.4356161229561696
  0.1992386742974982  0.6007737459128476  0.1016096541580975
  0.1993003874340218  0.2659796414409247  0.1022628243568444
  0.1993431794768301  0.3773064924801682  0.2670687042767164
  0.1995557569174562  0.0449379410505254  0.2659703029333861
  0.2001216058753301  0.0442976825255856  0.6011521200434086
  0.2774973676288084  0.4465774210975860  0.4457648483061554
  0.2973981462046942  0.4353517340795600  0.0992926002559061
  0.2979143572429150  0.2101359579235960  0.6038341527735934
  0.2984783730085902  0.0973984673978316  0.4345317239319985
  0.2994367353958491  0.2102538556794291  0.2673385003355009
  0.3000355901808007  0.0990490338555520  0.1019492765804915
  0.3001245499937261  0.5458599909894490  0.2672406261447802
  0.3007528766732107  0.5475410299149628  0.6037910364143646
  0.4006727702284826  0.6016068810834182  0.4359719414986587
  0.4006730135386551  0.6012395668579299  0.1026223771050121
  0.4006750246844759  0.0454115700417612  0.6022226625494982
  0.4006751439194165  0.3780780977019752  0.6051307035214802
  0.4006780338639171  0.3775916312558562  0.2366471590831608
  0.4006780457646317  0.2631182935157820  0.0992559350676607
  0.4006782811943958  0.2412666871926073  0.4459704140222661
  0.4006793832041137  0.0445979118764303  0.2683301848644333
  0.5005968886990761  0.5475445659555576  0.6037947187032922
  0.5012288389799200  0.5458657403907409  0.2672491676932541
  0.5012997988677350  0.0990442542545888  0.1019393494145117
  0.5019116932423914  0.2102610119856522  0.2673494365975893
  0.5028733242223347  0.0973953488616380  0.4345307436794009
  0.5034443158882049  0.2101227506550203  0.6038260607153028
  0.5039532166894578  0.4353556676461481  0.0992995235824025
  0.5238487701370291  0.4465778063891014  0.4457685164009123
  0.6012207950974158  0.0443020375676403  0.6011544159490434
  0.6017901981991158  0.0449409383233552  0.2659699639675915
  0.6020049007923083  0.3773078291850991  0.2670715963850395
  0.6020534477481185  0.2659836145163502  0.1022619093612011
  0.6021212495547743  0.6007707054718900  0.1016170593952240
  0.6023634975012733  0.2658137815036414  0.4356041597942132
  0.6031259262948316  0.3763073362699940  0.6038213237566467
  0.6035441495953779  0.6031557474838812  0.4336886605068219
  0.7009404446010055  0.5444155297397424  0.6007796118128160
  0.7013515504411398  0.1000012216363583  0.1000076832911501
  0.7013951961380551  0.5446570461102156  0.2670026653102908
  0.7014911295006911  0.2107424600665871  0.2670064242873528
  0.7015775832488040  0.2103787715205188  0.6008640939270442
  0.7018837951255839  0.4339170800084947  0.1014188884482017
  0.7020437433868041  0.1003785793570292  0.4339152915878330
  0.7040213123082801  0.4330899790842190  0.4337472188823525
  0.8006715058250728  0.3775544269952406  0.6008825602071541
  0.8006767698940700  0.0444018743351536  0.2664393871876372
  0.8006785718744982  0.2658231401472151  0.4340094173059703
  0.8006789858150740  0.6002340973360680  0.1000295692851012
  0.8006791230018082  0.2666171410996415  0.1000794592610262
  0.8006791694713000  0.6000794398090292  0.4337034330615593
  0.8006805535151420  0.0439384434080550  0.6001153837188673
  0.8006905771404569  0.3772251402670369  0.2658690610227307
2e-16   0.2666666666666667   0.2270322426666667
2e-16   0.2666666666666667   0.5603655760000001
2e-16   0.2666666666666667   0.8936989093333333
2e-16   0.6   0.2270322426666667
2e-16   0.6   0.5603655760000001
2e-16   0.6   0.8936989093333333
2e-16   0.9333333333333333   0.2270322426666667
2e-16   0.9333333333333333   0.5603655760000001
2e-16   0.9333333333333333   0.8936989093333333
1.1e-07   0.0444443833333334   0.3936989093333334
1.1e-07   0.0444443833333334   0.7270322426666667
1.1e-07   0.0444443833333334   0.0603655759999999
1.1e-07   0.3777777166666668   0.3936989093333334
1.1e-07   0.3777777166666668   0.7270322426666667
1.1e-07   0.3777777166666668   0.0603655759999999
1.1e-07   0.71111105   0.3936989093333334
1.1e-07   0.71111105   0.7270322426666667
1.1e-07   0.71111105   0.0603655759999999
0.1   0.1   0.8936989093333333
0.1   0.4333333333333334   0.8936989093333333
0.1   0.7666666666666667   0.2270322426666667
0.1   0.7666666666666667   0.5603655760000001
0.1   0.7666666666666667   0.8936989093333333
0.10000011   0.2111110500000001   0.7270322426666667
0.10000011   0.5444443833333333   0.7270322426666667
0.10000011   0.8777777166666666   0.3936989093333334
0.10000011   0.8777777166666666   0.7270322426666667
0.10000011   0.8777777166666666   0.0603655759999999
0.2   0.2666666666666667   0.8936989093333333
0.2   0.6   0.8936989093333333
0.2   0.9333333333333333   0.2270322426666667
0.2   0.9333333333333333   0.5603655760000001
0.2   0.9333333333333333   0.8936989093333333
0.20000011   0.0444443833333334   0.7270322426666667
0.20000011   0.3777777166666668   0.7270322426666667
0.20000011   0.71111105   0.3936989093333334
0.20000011   0.71111105   0.7270322426666667
0.20000011   0.71111105   0.0603655759999999
0.3   0.1   0.8936989093333333
0.3   0.4333333333333334   0.8936989093333333
0.3   0.7666666666666667   0.2270322426666667
0.3   0.7666666666666667   0.5603655760000001
0.3   0.7666666666666667   0.8936989093333333
0.30000011   0.2111110500000001   0.7270322426666667
0.30000011   0.5444443833333333   0.7270322426666667
0.30000011   0.8777777166666666   0.3936989093333334
0.30000011   0.8777777166666666   0.7270322426666667
0.30000011   0.8777777166666666   0.0603655759999999
0.4   0.2666666666666667   0.8936989093333333
0.4   0.6   0.8936989093333333
0.4   0.9333333333333333   0.2270322426666667
0.4   0.9333333333333333   0.5603655760000001
0.4   0.9333333333333333   0.8936989093333333
0.40000011   0.0444443833333334   0.7270322426666667
0.40000011   0.3777777166666668   0.7270322426666667
0.40000011   0.71111105   0.3936989093333334
0.40000011   0.71111105   0.7270322426666667
0.40000011   0.71111105   0.0603655759999999
0.5   0.1   0.8936989093333333
0.5   0.4333333333333334   0.8936989093333333
0.5   0.7666666666666667   0.2270322426666667
0.5   0.7666666666666667   0.5603655760000001
0.5   0.7666666666666667   0.8936989093333333
0.5000001100000001   0.2111110500000001   0.7270322426666667
0.5000001100000001   0.5444443833333333   0.7270322426666667
0.5000001100000001   0.8777777166666666   0.3936989093333334
0.5000001100000001   0.8777777166666666   0.7270322426666667
0.5000001100000001   0.8777777166666666   0.0603655759999999
0.6   0.2666666666666667   0.8936989093333333
0.6   0.6   0.8936989093333333
0.6   0.9333333333333333   0.2270322426666667
0.6   0.9333333333333333   0.5603655760000001
0.6   0.9333333333333333   0.8936989093333333
0.60000011   0.0444443833333334   0.7270322426666667
0.60000011   0.3777777166666668   0.7270322426666667
0.60000011   0.71111105   0.3936989093333334
0.60000011   0.71111105   0.7270322426666667
0.60000011   0.71111105   0.0603655759999999
0.7   0.1   0.8936989093333333
0.7   0.4333333333333334   0.8936989093333333
0.7   0.7666666666666667   0.2270322426666667
0.7   0.7666666666666667   0.5603655760000001
0.7   0.7666666666666667   0.8936989093333333
0.7000001100000001   0.2111110500000001   0.7270322426666667
0.7000001100000001   0.5444443833333333   0.7270322426666667
0.7000001100000001   0.8777777166666666   0.3936989093333334
0.7000001100000001   0.8777777166666666   0.7270322426666667
0.7000001100000001   0.8777777166666666   0.0603655759999999
0.8   0.2666666666666667   0.8936989093333333
0.8   0.6   0.8936989093333333
0.8   0.9333333333333333   0.2270322426666667
0.8   0.9333333333333333   0.5603655760000001
0.8   0.9333333333333333   0.8936989093333333
0.8000001099999999   0.0444443833333334   0.7270322426666667
0.8000001099999999   0.3777777166666668   0.7270322426666667
0.8000001099999999   0.71111105   0.3936989093333334
0.8000001099999999   0.71111105   0.7270322426666667
0.8000001099999999   0.71111105   0.0603655759999999
0.9   0.1   0.2270322426666667
0.9   0.1   0.5603655760000001
0.9   0.1   0.8936989093333333
0.9   0.4333333333333334   0.2270322426666667
0.9   0.4333333333333334   0.5603655760000001
0.9   0.4333333333333334   0.8936989093333333
0.9   0.7666666666666667   0.2270322426666667
0.9   0.7666666666666667   0.5603655760000001
0.9   0.7666666666666667   0.8936989093333333
0.90000011   0.2111110500000001   0.3936989093333334
0.90000011   0.2111110500000001   0.7270322426666667
0.90000011   0.2111110500000001   0.0603655759999999
0.90000011   0.5444443833333333   0.3936989093333334
0.90000011   0.5444443833333333   0.7270322426666667
0.90000011   0.5444443833333333   0.0603655759999999
0.90000011   0.8777777166666666   0.3936989093333334
0.90000011   0.8777777166666666   0.7270322426666667
0.90000011   0.8777777166666666   0.0603655759999999
  0.1003193016683909  0.1003090599562077  0.2269310035053519
  0.1006268696241447  0.2110841598804629  0.0608033120363972
  0.1007428352691936  0.2111393349727648  0.3940846483356987
  0.1007475206985896  0.4334854477133335  0.2282557818887890
  0.1008096848142519  0.0997240750631127  0.5606369935244975
  0.1008253989217068  0.5442633112742779  0.0608157009549719
  0.1010015210385030  0.5436335507768724  0.3943556777460793
  0.1012373395822285  0.4331483516060030  0.5603732074581693
  0.1995211989166489  0.0453552506656670  0.3931870494803854
  0.1999207185250038  0.3773631665287709  0.0628076808003048
  0.2004026772373059  0.6000162524371249  0.2284453694419553
  0.2005862573972976  0.0444843011029935  0.0610467371118226
  0.2006270492457214  0.2667704669213996  0.5617996986678178
  0.2007160202903683  0.3771522327763269  0.3948360272868955
  0.2007752441893740  0.2667211301858427  0.2290774591717681
  0.2010567697452723  0.5995600628081523  0.5602827370856325
  0.2998396827047823  0.2107026738739362  0.0628792116862755
  0.2999058276805682  0.4339475802076559  0.2292101515886333
  0.3000174380338611  0.2112467372897512  0.3950912011346552
  0.3006542009420893  0.5456637697023832  0.0628655538606782
  0.3007752315745978  0.1005302020067680  0.5610857247279276
  0.3008120162195739  0.0998178420784869  0.2288492092869907
  0.3009131394828571  0.5456855158634466  0.3950883763643581
  0.3009989482397651  0.4334835594772861  0.5644254037988288
  0.4006690452072563  0.0449666505310422  0.0619976795917782
  0.4006745534088134  0.2655469143292211  0.2291881197362314
  0.4006757276787086  0.3779379074022652  0.0669959130417875
  0.4006765128295975  0.5999495970953976  0.2295114873188366
  0.4006772110013698  0.0454273372431630  0.3955664936713507
  0.4006775713027858  0.6005443194134061  0.5621734986635573
  0.4006791684219486  0.2672172347528519  0.5646302547460791
  0.5003505963979853  0.4334842409541771  0.5644291747368730
  0.5004402063342068  0.5456895512233033  0.3950945965223870
  0.5005362390964048  0.0998268018681037  0.2288302987986736
  0.5005790823861953  0.1005281154639385  0.5610832609021139
  0.5006983157219494  0.5456681979414914  0.0628731371074283
  0.5013413309697496  0.2112433136268611  0.3950907436377089
  0.5014418125556395  0.4339504410857124  0.2292189951367058
  0.5015153141000932  0.2107024358565303  0.0628718976122683
  0.6002943258295839  0.5995639889873516  0.5602891580058782
  0.6005778234411978  0.2667213829198913  0.2290715149874721
  0.6006285668983351  0.3771506702437942  0.3948370907434497
  0.6007329653607036  0.2667681817905541  0.5618029120894393
  0.6007699251709679  0.0444810736360068  0.0610511814714360
  0.6009506945569976  0.6000155925228885  0.2284481926197543
  0.6014224187180350  0.3773694525326906  0.0628078533732549
  0.6018270476397973  0.0453539279993731  0.3931860969213631
  0.7001109271736374  0.4331472358466842  0.5603719332611909
  0.7003473840276699  0.5436357823758267  0.3943636507893267
  0.7005366397265440  0.5442639580751669  0.0608197167581583
  0.7005449627842752  0.0997236861950722  0.5606409873960843
  0.7006056378468575  0.4334872345325055  0.2282617644943810
  0.7006094482617646  0.2111398188405663  0.3940881212298847
  0.7007256445475203  0.2110841857049160  0.0608043987846077
  0.7010290137262822  0.1003058612447678  0.2269334045867482
  0.8006703254098411  0.3778708067533704  0.0607920333359947
  0.8006724047408771  0.0439061661192896  0.3935963331310602
  0.8006749736213470  0.3763847156779795  0.3930683803812465
  0.8006758136705081  0.2666042888141086  0.2269894260346528
  0.8006768543370153  0.5999728218307387  0.2271201456106157
  0.8006772584113180  0.5994194726409230  0.5604234473132471
  0.8006773442606487  0.0442221834466692  0.0601672979409077
  0.8006785514912340  0.2668132604224440  0.5607442917846581
