This file is generated by VASPKIT code  
1.0
       12.9960002899         0.0000000000         0.0000000000
        0.0000000000        16.8822994232         0.0000000000
        0.0000000000         0.0000000000        15.6146936417
   Zn    O
   143   144
Direct
     0.849131286         0.431973130         0.430761367
     0.849239826         0.431969434         0.098791443
     0.850054801         0.099059291         0.431703717
     0.848127246         0.100237273         0.099816009
     0.100000061         0.432346553         0.432998598
     0.100000061         0.432276070         0.099485800
     0.100000061         0.099420011         0.432804734
     0.100000061         0.100004576         0.100002326
     0.350868732         0.431973130         0.430761367
     0.350760311         0.431969434         0.098791443
     0.349945277         0.099059291         0.431703717
     0.351872891         0.100237273         0.099816009
     0.600000083         0.431859106         0.426890582
     0.600000083         0.429335326         0.098848663
     0.600000083         0.099231742         0.429989100
     0.600000083         0.098897196         0.098552033
     0.724852979         0.599058211         0.431334108
     0.724779010         0.597607613         0.099473797
     0.724228024         0.265740633         0.427003920
     0.721297741         0.267136395         0.098993227
     0.975147128         0.598924279         0.433096051
     0.974451959         0.599484086         0.099627301
     0.974721670         0.265840918         0.431844532
     0.973159075         0.266532958         0.099908866
     0.224852949         0.598924279         0.433096051
     0.225548178         0.599484086         0.099627301
     0.225278407         0.265840918         0.431844532
     0.226841003         0.266532958         0.099908866
     0.475147098         0.599058211         0.431334108
     0.475221127         0.597607613         0.099473797
     0.475772113         0.265740633         0.427003920
     0.478702337         0.267136395         0.098993227
     0.724514008         0.488068789         0.597507715
     0.723199606         0.485574514         0.263597548
     0.724701464         0.154947475         0.597405016
     0.723427951         0.156134576         0.263436407
     0.974390209         0.487899929         0.599511802
     0.974919796         0.488177687         0.266084701
     0.974472463         0.155246004         0.599529862
     0.973710895         0.156015739         0.264993042
     0.225609630         0.487899929         0.599511802
     0.225079924         0.488177687         0.266084701
     0.225527361         0.155246004         0.599529862
     0.226288825         0.156015739         0.264993042
     0.475485802         0.488068789         0.597507715
     0.476800174         0.485574514         0.263597548
     0.475298375         0.154947475         0.597405016
     0.476571947         0.156134576         0.263436407
     0.849735439         0.654952824         0.599528849
     0.850445211         0.654573083         0.266075045
     0.849291801         0.321468741         0.597653151
     0.846272707         0.321031094         0.263764679
     0.099999912         0.655143857         0.599924743
     0.099999912         0.655620456         0.266183645
     0.099999912         0.321375459         0.599664509
     0.099999912         0.322093219         0.266194969
     0.350264341         0.654952824         0.599528849
     0.349554628         0.654573083         0.266075045
     0.350708038         0.321468741         0.597653151
     0.353727132         0.321031094         0.263764679
     0.599999964         0.654862761         0.598801434
     0.599999964         0.652494788         0.263821244
     0.599999964         0.321502954         0.588162899
0.975000024   0.155599996   0.93333298
0.975000024   0.488933325   0.93333298
0.975000024   0.822266638   0.266666323
0.975000024   0.822266638   0.599999666
0.975000024   0.822266638   0.93333298
0.975000143   0.266711056   0.766666353
0.975000143   0.60004437   0.766666353
0.975000143   0.933377683   0.099999681
0.975000143   0.933377683   0.433333009
0.975000143   0.933377683   0.766666353
0.099999994   0.322266668   0.93333298
0.099999994   0.655600011   0.93333298
0.099999994   0.988933325   0.266666323
0.099999994   0.988933325   0.599999666
0.099999994   0.988933325   0.93333298
0.100000143   0.100044385   0.766666353
0.100000143   0.433377713   0.766666353
0.100000143   0.766711056   0.099999681
0.100000143   0.766711056   0.433333009
0.100000143   0.766711056   0.766666353
0.224999994   0.155599996   0.93333298
0.224999994   0.488933325   0.93333298
0.224999994   0.822266638   0.266666323
0.224999994   0.822266638   0.599999666
0.224999994   0.822266638   0.93333298
0.225000143   0.266711056   0.766666353
0.225000143   0.60004437   0.766666353
0.225000143   0.933377683   0.099999681
0.225000143   0.933377683   0.433333009
0.225000143   0.933377683   0.766666353
0.349999994   0.322266668   0.93333298
0.349999994   0.655600011   0.93333298
0.349999994   0.988933325   0.266666323
0.349999994   0.988933325   0.599999666
0.349999994   0.988933325   0.93333298
0.350000143   0.100044385   0.766666353
0.350000143   0.433377713   0.766666353
0.350000143   0.766711056   0.099999681
0.350000143   0.766711056   0.433333009
0.350000143   0.766711056   0.766666353
0.475000024   0.155599996   0.93333298
0.475000024   0.488933325   0.93333298
0.475000024   0.822266638   0.266666323
0.475000024   0.822266638   0.599999666
0.475000024   0.822266638   0.93333298
0.475000143   0.266711056   0.766666353
0.475000143   0.60004437   0.766666353
0.475000143   0.933377683   0.099999681
0.475000143   0.933377683   0.433333009
0.475000143   0.933377683   0.766666353
0.600000024   0.322266668   0.93333298
0.600000024   0.655600011   0.93333298
0.600000024   0.988933325   0.266666323
0.600000024   0.988933325   0.599999666
0.600000024   0.988933325   0.93333298
0.600000143   0.100044385   0.766666353
0.600000143   0.433377713   0.766666353
0.600000143   0.766711056   0.099999681
0.600000143   0.766711056   0.433333009
0.600000143   0.766711056   0.766666353
0.725000024   0.155599996   0.93333298
0.725000024   0.488933325   0.93333298
0.725000024   0.822266638   0.266666323
0.725000024   0.822266638   0.599999666
0.725000024   0.822266638   0.93333298
0.725000143   0.266711056   0.766666353
0.725000143   0.60004437   0.766666353
0.725000143   0.933377683   0.099999681
0.725000143   0.933377683   0.433333009
0.725000143   0.933377683   0.766666353
0.850000024   0.322266668   0.93333298
0.850000024   0.655600011   0.93333298
0.850000024   0.988933325   0.266666323
0.850000024   0.988933325   0.599999666
0.850000024   0.988933325   0.93333298
0.850000143   0.100044385   0.766666353
0.850000143   0.433377713   0.766666353
0.850000143   0.766711056   0.099999681
0.850000143   0.766711056   0.433333009
0.850000143   0.766711056   0.766666353
     0.850727975         0.432975709         0.557889163
     0.851995409         0.433097064         0.225543052
     0.851095021         0.098738052         0.558795035
     0.851838648         0.097483419         0.226156786
     0.100000061         0.432726920         0.560033381
     0.100000061         0.433203876         0.226318881
     0.100000061         0.099369869         0.559940577
     0.100000061         0.099702261         0.226767808
     0.349272162         0.432975709         0.557889163
     0.348004699         0.433097064         0.225543052
     0.348905087         0.098738052         0.558795035
     0.348161429         0.097483419         0.226156786
     0.600000083         0.435438603         0.557163179
     0.600000083         0.443507850         0.219350636
     0.600000083         0.098530039         0.557346165
     0.600000083         0.096806787         0.225281909
     0.725472152         0.599981248         0.558518469
     0.727348387         0.599836886         0.225857005
     0.728278399         0.264339447         0.557277739
     0.737885356         0.259494066         0.219373778
     0.975456178         0.599241912         0.560113668
     0.976223946         0.599170685         0.226498678
     0.975912511         0.265813172         0.558936000
     0.977183044         0.266598403         0.226249844
     0.224543944         0.599241912         0.560113668
     0.223776162         0.599170685         0.226498678
     0.224087581         0.265813172         0.558936000
     0.222817034         0.266598403         0.226249844
     0.474527925         0.599981248         0.558518469
     0.472651690         0.599836886         0.225857005
     0.471721739         0.264339447         0.557277739
     0.462114662         0.259494066         0.219373778
     0.726374507         0.489067495         0.391416788
     0.726450741         0.488004446         0.056955058
     0.725921154         0.153005272         0.391366690
     0.724292755         0.153641760         0.056893747
     0.975657403         0.488251448         0.393203706
     0.975460649         0.488476247         0.059626937
     0.975537598         0.154634342         0.392652482
     0.974836469         0.154932991         0.059685189
     0.224342436         0.488251448         0.393203706
     0.224539191         0.488476247         0.059626937
     0.224462196         0.154634342         0.392652482
     0.225163370         0.154932991         0.059685189
     0.473625273         0.489067495         0.391416788
     0.473549128         0.488004446         0.056955058
     0.474078625         0.153005272         0.391366690
     0.475707203         0.153641760         0.056893747
     0.851104677         0.654361188         0.393272430
     0.850029707         0.654954135         0.059506375
     0.851838946         0.321517169         0.391566068
     0.850702345         0.322056592         0.057099182
     0.099999912         0.654825270         0.393495560
     0.099999912         0.655234635         0.060148794
     0.099999912         0.321751267         0.393412799
     0.099999912         0.321324766         0.059655864
     0.348895103         0.654361188         0.393272430
     0.349970132         0.654954135         0.059506375
     0.348160833         0.321517169         0.391566068
     0.349297494         0.322056592         0.057099182
     0.599999964         0.654151976         0.391558588
     0.599999964         0.653687537         0.058885731
     0.599999964         0.321254611         0.410282105
     0.599999964         0.321334451         0.050526261
0.975000024   0.155599996   0.727031946
0.975000024   0.488933325   0.727031946
0.975000024   0.822266638   0.060365245
0.975000024   0.822266638   0.393698543
0.975000024   0.822266638   0.727031946
0.975000143   0.266711056   0.893698573
0.975000143   0.60004437   0.893698573
0.975000143   0.933377683   0.227031901
0.975000143   0.933377683   0.56036526
0.975000143   0.933377683   0.893698573
0.099999994   0.322266668   0.727031946
0.099999994   0.655600011   0.727031946
0.099999994   0.988933325   0.060365245
0.099999994   0.988933325   0.393698543
0.099999994   0.988933325   0.727031946
0.100000143   0.100044385   0.893698573
0.100000143   0.433377713   0.893698573
0.100000143   0.766711056   0.227031901
0.100000143   0.766711056   0.56036526
0.100000143   0.766711056   0.893698573
0.224999994   0.155599996   0.727031946
0.224999994   0.488933325   0.727031946
0.224999994   0.822266638   0.060365245
0.224999994   0.822266638   0.393698543
0.224999994   0.822266638   0.727031946
0.225000143   0.266711056   0.893698573
0.225000143   0.60004437   0.893698573
0.225000143   0.933377683   0.227031901
0.225000143   0.933377683   0.56036526
0.225000143   0.933377683   0.893698573
0.349999994   0.322266668   0.727031946
0.349999994   0.655600011   0.727031946
0.349999994   0.988933325   0.060365245
0.349999994   0.988933325   0.393698543
0.349999994   0.988933325   0.727031946
0.350000143   0.100044385   0.893698573
0.350000143   0.433377713   0.893698573
0.350000143   0.766711056   0.227031901
0.350000143   0.766711056   0.56036526
0.350000143   0.766711056   0.893698573
0.475000024   0.155599996   0.727031946
0.475000024   0.488933325   0.727031946
0.475000024   0.822266638   0.060365245
0.475000024   0.822266638   0.393698543
0.475000024   0.822266638   0.727031946
0.475000143   0.266711056   0.893698573
0.475000143   0.60004437   0.893698573
0.475000143   0.933377683   0.227031901
0.475000143   0.933377683   0.56036526
0.475000143   0.933377683   0.893698573
0.600000024   0.322266668   0.727031946
0.600000024   0.655600011   0.727031946
0.600000024   0.988933325   0.060365245
0.600000024   0.988933325   0.393698543
0.600000024   0.988933325   0.727031946
0.600000143   0.100044385   0.893698573
0.600000143   0.433377713   0.893698573
0.600000143   0.766711056   0.227031901
0.600000143   0.766711056   0.56036526
0.600000143   0.766711056   0.893698573
0.725000024   0.155599996   0.727031946
0.725000024   0.488933325   0.727031946
0.725000024   0.822266638   0.060365245
0.725000024   0.822266638   0.393698543
0.725000024   0.822266638   0.727031946
0.725000143   0.266711056   0.893698573
0.725000143   0.60004437   0.893698573
0.725000143   0.933377683   0.227031901
0.725000143   0.933377683   0.56036526
0.725000143   0.933377683   0.893698573
0.850000024   0.322266668   0.727031946
0.850000024   0.655600011   0.727031946
0.850000024   0.988933325   0.060365245
0.850000024   0.988933325   0.393698543
0.850000024   0.988933325   0.727031946
0.850000143   0.100044385   0.893698573
0.850000143   0.433377713   0.893698573
0.850000143   0.766711056   0.227031901
0.850000143   0.766711056   0.56036526
0.850000143   0.766711056   0.893698573
