This file is generated by VASPKIT code  
       1.0 
    12.9960000000000004  0.0000000000000000  0.0000000000000000 
     0.0000000000000000 16.8822992220000003  0.0000000000000000 
     0.0000000000000000  0.0000000000000000 15.6146940000000001 
  Zn    O
  144   143
Direct
0.1   0.1   0.7666666666666667
0.1   0.4333333333333334   0.7666666666666667
0.1   0.7666666666666667   0.4333333333333333
0.1   0.7666666666666667   0.7666666666666667
0.1   0.7666666666666667   0.1
0.1000001375   0.2111110500000001   0.9333333333333333
0.1000001375   0.5444443833333333   0.9333333333333333
0.1000001375   0.8777777166666666   0.2666666666666666
0.1000001375   0.8777777166666666   0.6000000000000001
0.1000001375   0.8777777166666666   0.9333333333333333
0.225   0.2666666666666667   0.7666666666666667
0.225   0.6   0.7666666666666667
0.225   0.9333333333333333   0.4333333333333333
0.225   0.9333333333333333   0.7666666666666667
0.225   0.9333333333333333   0.1
0.2250001375   0.0444443833333334   0.9333333333333333
0.2250001375   0.3777777166666668   0.9333333333333333
0.2250001375   0.71111105   0.2666666666666666
0.2250001375   0.71111105   0.6000000000000001
0.2250001375   0.71111105   0.9333333333333333
0.35   0.1   0.7666666666666667
0.35   0.4333333333333334   0.7666666666666667
0.35   0.7666666666666667   0.4333333333333333
0.35   0.7666666666666667   0.7666666666666667
0.35   0.7666666666666667   0.1
0.3500001375   0.2111110500000001   0.9333333333333333
0.3500001375   0.5444443833333333   0.9333333333333333
0.3500001375   0.8777777166666666   0.2666666666666666
0.3500001375   0.8777777166666666   0.6000000000000001
0.3500001375   0.8777777166666666   0.9333333333333333
0.475   0.2666666666666667   0.7666666666666667
0.475   0.6   0.7666666666666667
0.475   0.9333333333333333   0.4333333333333333
0.475   0.9333333333333333   0.7666666666666667
0.475   0.9333333333333333   0.1
0.4750001375   0.0444443833333334   0.9333333333333333
0.4750001375   0.3777777166666668   0.9333333333333333
0.4750001375   0.71111105   0.2666666666666666
0.4750001375   0.71111105   0.6000000000000001
0.4750001375   0.71111105   0.9333333333333333
0.6   0.1   0.7666666666666667
0.6   0.4333333333333334   0.7666666666666667
0.6   0.7666666666666667   0.4333333333333333
0.6   0.7666666666666667   0.7666666666666667
0.6   0.7666666666666667   0.1
0.6000001375   0.2111110500000001   0.9333333333333333
0.6000001375   0.5444443833333333   0.9333333333333333
0.6000001375   0.8777777166666666   0.2666666666666666
0.6000001375   0.8777777166666666   0.6000000000000001
0.6000001375   0.8777777166666666   0.9333333333333333
0.725   0.2666666666666667   0.7666666666666667
0.725   0.6   0.7666666666666667
0.725   0.9333333333333333   0.4333333333333333
0.725   0.9333333333333333   0.7666666666666667
0.725   0.9333333333333333   0.1
0.7250001374999999   0.0444443833333334   0.9333333333333333
0.7250001374999999   0.3777777166666668   0.9333333333333333
0.7250001374999999   0.71111105   0.2666666666666666
0.7250001374999999   0.71111105   0.6000000000000001
0.7250001374999999   0.71111105   0.9333333333333333
0.85   0.1   0.7666666666666667
0.85   0.4333333333333334   0.7666666666666667
0.85   0.7666666666666667   0.4333333333333333
0.85   0.7666666666666667   0.7666666666666667
0.85   0.7666666666666667   0.1
0.8500001375   0.2111110500000001   0.9333333333333333
0.8500001375   0.5444443833333333   0.9333333333333333
0.8500001375   0.8777777166666666   0.2666666666666666
0.8500001375   0.8777777166666666   0.6000000000000001
0.8500001375   0.8777777166666666   0.9333333333333333
0.975   0.2666666666666667   0.7666666666666667
0.975   0.6   0.7666666666666667
0.975   0.9333333333333333   0.4333333333333333
0.975   0.9333333333333333   0.7666666666666667
0.975   0.9333333333333333   0.1
0.9750001374999999   0.0444443833333334   0.9333333333333333
0.9750001374999999   0.3777777166666668   0.9333333333333333
0.9750001374999999   0.71111105   0.2666666666666666
0.9750001374999999   0.71111105   0.6000000000000001
0.9750001374999999   0.71111105   0.9333333333333333
  0.0966533187215581  0.4330911949418560  0.4337535764927599
  0.0991299125783286  0.1003760094485820  0.4339125207850870
  0.0993172593301845  0.4339290522985894  0.1014201586146830
  0.0997277969480340  0.2103840229235885  0.6008575122234951
  0.0998243729284189  0.2107429233451101  0.2670039464291661
  0.0999498038732075  0.5446576070635254  0.2669944089575169
  0.1000000000000000  0.1000000000000000  0.1000000000000000
  0.1005133748711692  0.5444129521389972  0.6007745028996483
  0.2222671754640843  0.6031560534687355  0.4336782916929199
  0.2227825877994835  0.3762957609728297  0.6038013372517300
  0.2237454019568172  0.2658136496082947  0.4356161229561696
  0.2240483428718727  0.6007737459128476  0.1016096541580975
  0.2241254842925273  0.2659796414409247  0.1022628243568444
  0.2241789743460376  0.3773064924801682  0.2670687042767164
  0.2244446961468202  0.0449379410505254  0.2659703029333861
  0.2251520073441626  0.0442976825255856  0.6011521200434086
  0.3218717095360105  0.4465774210975860  0.4457648483061554
  0.3467476827558678  0.4353517340795600  0.0992926002559061
  0.3473929465536437  0.2101359579235960  0.6038341527735934
  0.3480979662607377  0.0973984673978316  0.4345317239319985
  0.3492959192448113  0.2102538556794291  0.2673385003355009
  0.3500444877260009  0.0990490338555520  0.1019492765804915
  0.3501556874921576  0.5458599909894490  0.2672406261447802
  0.3509410958415133  0.5475410299149628  0.6037910364143646
  0.4758409627856032  0.6016068810834182  0.4359719414986587
  0.4758412669233189  0.6012395668579299  0.1026223771050121
  0.4758437808555948  0.0454115700417612  0.6022226625494982
  0.4758439298992706  0.3780780977019752  0.6051307035214802
  0.4758475423298963  0.3775916312558562  0.2366471590831608
  0.4758475572057895  0.2631182935157820  0.0992559350676607
  0.4758478514929947  0.2412666871926073  0.4459704140222661
  0.4758492290051420  0.0445979118764303  0.2683301848644333
  0.6007461108738452  0.5475445659555576  0.6037947187032922
  0.6015360487248999  0.5458657403907409  0.2672491676932541
  0.6016247485846687  0.0990442542545888  0.1019393494145117
  0.6023896165529892  0.2102610119856522  0.2673494365975893
  0.6035916552779182  0.0973953488616380  0.4345307436794009
  0.6043053948602560  0.2101227506550203  0.6038260607153028
  0.6049415208618222  0.4353556676461481  0.0992995235824025
  0.6298109626712863  0.4465778063891014  0.4457685164009123
  0.7265259938717696  0.0443020375676403  0.6011544159490434
  0.7272377477488947  0.0449409383233552  0.2659699639675915
  0.7275061259903854  0.3773078291850991  0.2670715963850395
  0.7275668096851481  0.2659836145163502  0.1022619093612011
  0.7276515619434678  0.6007707054718900  0.1016170593952240
  0.7279543718765915  0.2658137815036414  0.4356041597942132
  0.7289074078685395  0.3763073362699940  0.6038213237566467
  0.7294301869942224  0.6031557474838812  0.4336886605068219
  0.8511755557512569  0.5444155297397424  0.6007796118128160
  0.8516894380514248  0.1000012216363583  0.1000076832911501
  0.8517439951725689  0.5446570461102156  0.2670026653102908
  0.8518639118758639  0.2107424600665871  0.2670064242873528
  0.8519719790610051  0.2103787715205188  0.6008640939270442
  0.8523547439069797  0.4339170800084947  0.1014188884482017
  0.8525546792335051  0.1003785793570292  0.4339152915878330
  0.8550266403853500  0.4330899790842190  0.4337472188823525
  0.9758393822813409  0.3775544269952406  0.6008825602071541
  0.9758459623675875  0.0444018743351536  0.2664393871876372
  0.9758482148431227  0.2658231401472151  0.4340094173059703
  0.9758487322688425  0.6002340973360680  0.1000295692851012
  0.9758489037522603  0.2666171410996415  0.1000794592610262
  0.9758489618391251  0.6000794398090292  0.4337034330615593
  0.9758506918939275  0.0439384434080550  0.6001153837188673
  0.9758632214255710  0.3772251402670369  0.2658690610227307
0.1   0.1   0.8936989093333333
0.1   0.4333333333333334   0.8936989093333333
0.1   0.7666666666666667   0.2270322426666667
0.1   0.7666666666666667   0.5603655760000001
0.1   0.7666666666666667   0.8936989093333333
0.1000001375   0.2111110500000001   0.7270322426666667
0.1000001375   0.5444443833333333   0.7270322426666667
0.1000001375   0.8777777166666666   0.3936989093333334
0.1000001375   0.8777777166666666   0.7270322426666667
0.1000001375   0.8777777166666666   0.0603655759999999
0.225   0.2666666666666667   0.8936989093333333
0.225   0.6   0.8936989093333333
0.225   0.9333333333333333   0.2270322426666667
0.225   0.9333333333333333   0.5603655760000001
0.225   0.9333333333333333   0.8936989093333333
0.2250001375   0.0444443833333334   0.7270322426666667
0.2250001375   0.3777777166666668   0.7270322426666667
0.2250001375   0.71111105   0.3936989093333334
0.2250001375   0.71111105   0.7270322426666667
0.2250001375   0.71111105   0.0603655759999999
0.35   0.1   0.8936989093333333
0.35   0.4333333333333334   0.8936989093333333
0.35   0.7666666666666667   0.2270322426666667
0.35   0.7666666666666667   0.5603655760000001
0.35   0.7666666666666667   0.8936989093333333
0.3500001375   0.2111110500000001   0.7270322426666667
0.3500001375   0.5444443833333333   0.7270322426666667
0.3500001375   0.8777777166666666   0.3936989093333334
0.3500001375   0.8777777166666666   0.7270322426666667
0.3500001375   0.8777777166666666   0.0603655759999999
0.475   0.2666666666666667   0.8936989093333333
0.475   0.6   0.8936989093333333
0.475   0.9333333333333333   0.2270322426666667
0.475   0.9333333333333333   0.5603655760000001
0.475   0.9333333333333333   0.8936989093333333
0.4750001375   0.0444443833333334   0.7270322426666667
0.4750001375   0.3777777166666668   0.7270322426666667
0.4750001375   0.71111105   0.3936989093333334
0.4750001375   0.71111105   0.7270322426666667
0.4750001375   0.71111105   0.0603655759999999
0.6   0.1   0.8936989093333333
0.6   0.4333333333333334   0.8936989093333333
0.6   0.7666666666666667   0.2270322426666667
0.6   0.7666666666666667   0.5603655760000001
0.6   0.7666666666666667   0.8936989093333333
0.6000001375   0.2111110500000001   0.7270322426666667
0.6000001375   0.5444443833333333   0.7270322426666667
0.6000001375   0.8777777166666666   0.3936989093333334
0.6000001375   0.8777777166666666   0.7270322426666667
0.6000001375   0.8777777166666666   0.0603655759999999
0.725   0.2666666666666667   0.8936989093333333
0.725   0.6   0.8936989093333333
0.725   0.9333333333333333   0.2270322426666667
0.725   0.9333333333333333   0.5603655760000001
0.725   0.9333333333333333   0.8936989093333333
0.7250001374999999   0.0444443833333334   0.7270322426666667
0.7250001374999999   0.3777777166666668   0.7270322426666667
0.7250001374999999   0.71111105   0.3936989093333334
0.7250001374999999   0.71111105   0.7270322426666667
0.7250001374999999   0.71111105   0.0603655759999999
0.85   0.1   0.8936989093333333
0.85   0.4333333333333334   0.8936989093333333
0.85   0.7666666666666667   0.2270322426666667
0.85   0.7666666666666667   0.5603655760000001
0.85   0.7666666666666667   0.8936989093333333
0.8500001375   0.2111110500000001   0.7270322426666667
0.8500001375   0.5444443833333333   0.7270322426666667
0.8500001375   0.8777777166666666   0.3936989093333334
0.8500001375   0.8777777166666666   0.7270322426666667
0.8500001375   0.8777777166666666   0.0603655759999999
0.975   0.2666666666666667   0.8936989093333333
0.975   0.6   0.8936989093333333
0.975   0.9333333333333333   0.2270322426666667
0.975   0.9333333333333333   0.5603655760000001
0.975   0.9333333333333333   0.8936989093333333
0.9750001374999999   0.0444443833333334   0.7270322426666667
0.9750001374999999   0.3777777166666668   0.7270322426666667
0.9750001374999999   0.71111105   0.3936989093333334
0.9750001374999999   0.71111105   0.7270322426666667
0.9750001374999999   0.71111105   0.0603655759999999
  0.1003991270854886  0.1003090599562077  0.2269310035053519
  0.1007835870301808  0.2110841598804629  0.0608033120363972
  0.1009285440864920  0.2111393349727648  0.3940846483356987
  0.1009344008732370  0.4334854477133335  0.2282557818887890
  0.1010121060178149  0.0997240750631127  0.5606369935244975
  0.1010317486521335  0.5442633112742779  0.0608157009549719
  0.1012519012981287  0.5436335507768724  0.3943556777460793
  0.1015466744777856  0.4331483516060030  0.5603732074581693
  0.2244014986458111  0.0453552506656670  0.3931870494803854
  0.2249008981562547  0.3773631665287709  0.0628076808003048
  0.2255033465466323  0.6000162524371249  0.2284453694419553
  0.2257328217466220  0.0444843011029935  0.0610467371118226
  0.2257838115571518  0.2667704669213996  0.5617996986678178
  0.2258950253629604  0.3771522327763269  0.3948360272868955
  0.2259690552367174  0.2667211301858427  0.2290774591717681
  0.2263209621815903  0.5995600628081523  0.5602827370856325
  0.3497996033809779  0.2107026738739362  0.0628792116862755
  0.3498822846007102  0.4339475802076559  0.2292101515886333
  0.3500217975423263  0.2112467372897512  0.3950912011346552
  0.3508177511776116  0.5456637697023832  0.0628655538606782
  0.3509690394682472  0.1005302020067680  0.5610857247279276
  0.3510150202744674  0.0998178420784869  0.2288492092869907
  0.3511414243535713  0.5456855158634466  0.3950883763643581
  0.3512486852997063  0.4334835594772861  0.5644254037988288
  0.4758363065090704  0.0449666505310422  0.0619976795917782
  0.4758431917610167  0.2655469143292211  0.2291881197362314
  0.4758446595983857  0.3779379074022652  0.0669959130417875
  0.4758456410369969  0.5999495970953976  0.2295114873188366
  0.4758465137517123  0.0454273372431630  0.3955664936713507
  0.4758469641284822  0.6005443194134061  0.5621734986635573
  0.4758489605274356  0.2672172347528519  0.5646302547460791
  0.6004382454974815  0.4334842409541771  0.5644291747368730
  0.6005502579177585  0.5456895512233033  0.3950945965223870
  0.6006702988705059  0.0998268018681037  0.2288302987986736
  0.6007238529827440  0.1005281154639385  0.5610832609021139
  0.6008728946524368  0.5456681979414914  0.0628731371074283
  0.6016766637121871  0.2112433136268611  0.3950907436377089
  0.6018022656945492  0.4339504410857124  0.2292189951367058
  0.6018941426251165  0.2107024358565303  0.0628718976122683
  0.7253679072869799  0.5995639889873516  0.5602891580058782
  0.7257222793014974  0.2667213829198913  0.2290715149874721
  0.7257857086229188  0.3771506702437942  0.3948370907434497
  0.7259162067008794  0.2667681817905541  0.5618029120894393
  0.7259624064637100  0.0444810736360068  0.0610511814714360
  0.7261883681962470  0.6000155925228885  0.2284481926197543
  0.7267780233975437  0.3773694525326906  0.0628078533732549
  0.7272838095497466  0.0453539279993731  0.3931860969213631
  0.8501386589670467  0.4331472358466842  0.5603719332611909
  0.8504342300345875  0.5436357823758267  0.3943636507893267
  0.8506707996581799  0.5442639580751669  0.0608197167581583
  0.8506812034803442  0.0997236861950722  0.5606409873960843
  0.8507570473085718  0.4334872345325055  0.2282617644943810
  0.8507618103272058  0.2111398188405663  0.3940881212298847
  0.8509070556844004  0.2110841857049160  0.0608043987846077
  0.8512862671578528  0.1003058612447678  0.2269334045867482
  0.9758379067623013  0.3778708067533704  0.0607920333359947
  0.9758405059260963  0.0439061661192896  0.3935963331310602
  0.9758437170266838  0.3763847156779795  0.3930683803812465
  0.9758447670881352  0.2666042888141086  0.2269894260346528
  0.9758460679212692  0.5999728218307387  0.2271201456106157
  0.9758465730141475  0.5994194726409230  0.5604234473132471
  0.9758466803258109  0.0442221834466692  0.0601672979409077
  0.9758481893640424  0.2668132604224440  0.5607442917846581
