&CONTROL
  calculation = 'scf'
  outdir = './out/'
  prefix = 'ZnO'
  pseudo_dir = '/scratch/08934/tg882331/ZnO-WOT-SRSH/pseudo/'
  verbosity = 'high'
/
&SYSTEM
  ecutrho =  440
  ecutwfc =   110
  ecutfock = 220
  ibrav = 0
  nat = 359
  ntyp = 2
  occupations = 'fixed'
  input_dft = 'rsh'
  exx_fraction = 0.275238531
  rsh_beta = 0.0
  screening_parameter = 0.3
  nspin = 2
  tot_charge = 1
  tot_magnetization = 1
  wannier_constraint = .true.
  lambda_wann_constr = 15.0
/
&ELECTRONS
  conv_thr =   5.000000000d-07
  electron_maxstep = 80
  startingwfc = 'file'
  startingpot = 'file'
/
ATOMIC_SPECIES
Zn    65.38 Zn.upf
O     15.999 O.upf

ATOMIC_POSITIONS crystal
 Zn      0.000000000         0.266666681         0.433333337
 Zn      0.000000000         0.266666681         0.766666651
 Zn      0.000000000         0.266666681         0.100000001
 Zn      0.000000000         0.600000024         0.433333337
 Zn      0.000000000         0.600000024         0.766666651
 Zn      0.000000000         0.600000024         0.100000001
 Zn      0.000000000         0.933333337         0.433333337
 Zn      0.000000000         0.933333337         0.766666651
 Zn      0.000000000         0.933333337         0.100000001
 Zn      0.000000000         0.044444382         0.266666681
 Zn      0.000000000         0.044444382         0.600000024
 Zn      0.000000000         0.044444382         0.933333337
 Zn      0.000000000         0.377777725         0.266666681
 Zn      0.000000000         0.377777725         0.600000024
 Zn      0.000000000         0.377777725         0.933333337
 Zn      0.000000000         0.711111069         0.266666681
 Zn      0.000000000         0.711111069         0.600000024
 Zn      0.000000000         0.711111069         0.933333337
 Zn      0.100000001         0.100000001         0.766666651
 Zn      0.100000001         0.433333337         0.766666651
 Zn      0.100000001         0.766666651         0.433333337
 Zn      0.100000001         0.766666651         0.766666651
 Zn      0.100000001         0.766666651         0.100000001
 Zn      0.100000113         0.211111054         0.933333337
 Zn      0.100000113         0.544444382         0.933333337
 Zn      0.100000113         0.877777696         0.266666681
 Zn      0.100000113         0.877777696         0.600000024
 Zn      0.100000113         0.877777696         0.933333337
 Zn      0.200000003         0.266666681         0.766666651
 Zn      0.200000003         0.600000024         0.766666651
 Zn      0.200000003         0.933333337         0.433333337
 Zn      0.200000003         0.933333337         0.766666651
 Zn      0.200000003         0.933333337         0.100000001
 Zn      0.200000107         0.044444382         0.933333337
 Zn      0.200000107         0.377777725         0.933333337
 Zn      0.200000107         0.711111069         0.266666681
 Zn      0.200000107         0.711111069         0.600000024
 Zn      0.200000107         0.711111069         0.933333337
 Zn      0.300000012         0.100000001         0.766666651
 Zn      0.300000012         0.433333337         0.766666651
 Zn      0.300000012         0.766666651         0.433333337
 Zn      0.300000012         0.766666651         0.766666651
 Zn      0.300000012         0.766666651         0.100000001
 Zn      0.300000101         0.211111054         0.933333337
 Zn      0.300000101         0.544444382         0.933333337
 Zn      0.300000101         0.877777696         0.266666681
 Zn      0.300000101         0.877777696         0.600000024
 Zn      0.300000101         0.877777696         0.933333337
 Zn      0.400000006         0.266666681         0.766666651
 Zn      0.400000006         0.600000024         0.766666651
 Zn      0.400000006         0.933333337         0.433333337
 Zn      0.400000006         0.933333337         0.766666651
 Zn      0.400000006         0.933333337         0.100000001
 Zn      0.400000095         0.044444382         0.933333337
 Zn      0.400000095         0.377777725         0.933333337
 Zn      0.400000095         0.711111069         0.266666681
 Zn      0.400000095         0.711111069         0.600000024
 Zn      0.400000095         0.711111069         0.933333337
 Zn      0.500000000         0.100000001         0.766666651
 Zn      0.500000000         0.433333337         0.766666651
 Zn      0.500000000         0.766666651         0.433333337
 Zn      0.500000000         0.766666651         0.766666651
 Zn      0.500000000         0.766666651         0.100000001
 Zn      0.500000119         0.211111054         0.933333337
 Zn      0.500000119         0.544444382         0.933333337
 Zn      0.500000119         0.877777696         0.266666681
 Zn      0.500000119         0.877777696         0.600000024
 Zn      0.500000119         0.877777696         0.933333337
 Zn      0.600000024         0.266666681         0.766666651
 Zn      0.600000024         0.600000024         0.766666651
 Zn      0.600000024         0.933333337         0.433333337
 Zn      0.600000024         0.933333337         0.766666651
 Zn      0.600000024         0.933333337         0.100000001
 Zn      0.600000083         0.044444382         0.933333337
 Zn      0.600000083         0.377777725         0.933333337
 Zn      0.600000083         0.711111069         0.266666681
 Zn      0.600000083         0.711111069         0.600000024
 Zn      0.600000083         0.711111069         0.933333337
 Zn      0.699999988         0.100000001         0.766666651
 Zn      0.699999988         0.433333337         0.766666651
 Zn      0.699999988         0.766666651         0.433333337
 Zn      0.699999988         0.766666651         0.766666651
 Zn      0.699999988         0.766666651         0.100000001
 Zn      0.700000107         0.211111054         0.933333337
 Zn      0.700000107         0.544444382         0.933333337
 Zn      0.700000107         0.877777696         0.266666681
 Zn      0.700000107         0.877777696         0.600000024
 Zn      0.700000107         0.877777696         0.933333337
 Zn      0.800000012         0.266666681         0.766666651
 Zn      0.800000012         0.600000024         0.766666651
 Zn      0.800000012         0.933333337         0.433333337
 Zn      0.800000012         0.933333337         0.766666651
 Zn      0.800000012         0.933333337         0.100000001
 Zn      0.800000131         0.044444382         0.933333337
 Zn      0.800000131         0.377777725         0.933333337
 Zn      0.800000131         0.711111069         0.266666681
 Zn      0.800000131         0.711111069         0.600000024
 Zn      0.800000131         0.711111069         0.933333337
 Zn      0.899999976         0.100000001         0.433333337
 Zn      0.899999976         0.100000001         0.766666651
 Zn      0.899999976         0.100000001         0.100000001
 Zn      0.899999976         0.433333337         0.433333337
 Zn      0.899999976         0.433333337         0.766666651
 Zn      0.899999976         0.433333337         0.100000001
 Zn      0.899999976         0.766666651         0.433333337
 Zn      0.899999976         0.766666651         0.766666651
 Zn      0.899999976         0.766666651         0.100000001
 Zn      0.900000095         0.211111054         0.266666681
 Zn      0.900000095         0.211111054         0.600000024
 Zn      0.900000095         0.211111054         0.933333337
 Zn      0.900000095         0.544444382         0.266666681
 Zn      0.900000095         0.544444382         0.600000024
 Zn      0.900000095         0.544444382         0.933333337
 Zn      0.900000095         0.877777696         0.266666681
 Zn      0.900000095         0.877777696         0.600000024
 Zn      0.900000095         0.877777696         0.933333337
 Zn      0.099881612         0.210950673         0.600045741
 Zn      0.099929228         0.210826576         0.266569734
 Zn      0.099952862         0.544417381         0.599919319
 Zn      0.100000001         0.100000001         0.100000001
 Zn      0.100022145         0.544334769         0.266592920
 Zn      0.100094862         0.433411509         0.099797860
 Zn      0.100404546         0.099691100         0.433206022
 Zn      0.101206213         0.433386147         0.433184206
 Zn      0.200092524         0.377326757         0.267098874
 Zn      0.200094774         0.267057538         0.433943957
 Zn      0.200118661         0.267036468         0.099380627
 Zn      0.200245261         0.044223007         0.599645138
 Zn      0.200270519         0.044144791         0.266905755
 Zn      0.200326785         0.599932969         0.099737026
 Zn      0.200901762         0.378411889         0.599257469
 Zn      0.201396242         0.598913193         0.433064759
 Zn      0.299808502         0.211486161         0.267077178
 Zn      0.299895257         0.100577198         0.099771157
 Zn      0.299999207         0.543258667         0.599266648
 Zn      0.300378144         0.544096768         0.266923070
 Zn      0.300621927         0.432940066         0.102501988
 Zn      0.300794631         0.101797499         0.433298826
 Zn      0.300818503         0.211861551         0.599283040
 Zn      0.308384299         0.428529918         0.429630011
 Zn      0.399807215         0.377766788         0.279444903
 Zn      0.399807423         0.276720196         0.429644823
 Zn      0.399809003         0.267602682         0.102479093
 Zn      0.399812222         0.044308819         0.266258597
 Zn      0.399812549         0.044371508         0.600132287
 Zn      0.399812847         0.599807560         0.099107161
 Zn      0.399813384         0.377766281         0.601369977
 Zn      0.399814546         0.600204647         0.433783591
 Zn      0.491235077         0.428517848         0.429616183
 Zn      0.498801142         0.211838946         0.599276125
 Zn      0.498825014         0.101792291         0.433290452
 Zn      0.498999029         0.432932913         0.102487460
 Zn      0.499248475         0.544088721         0.266910970
 Zn      0.499635190         0.543248832         0.599240482
 Zn      0.499728143         0.100568026         0.099775448
 Zn      0.499810100         0.211470574         0.267073125
 Zn      0.598221958         0.598904133         0.433054537
 Zn      0.598726451         0.378389895         0.599241555
 Zn      0.599287391         0.599910796         0.099713817
 Zn      0.599351108         0.044137172         0.266884059
 Zn      0.599389315         0.044202670         0.599640369
 Zn      0.599496007         0.267025083         0.099352255
 Zn      0.599513054         0.267061532         0.433925599
 Zn      0.599525928         0.377314866         0.267070681
 Zn      0.698423505         0.433373630         0.433160841
 Zn      0.699189723         0.099683933         0.433194190
 Zn      0.699525595         0.433411032         0.099781528
 Zn      0.699596405         0.544313669         0.266578496
 Zn      0.699613869         0.099998347         0.099997059
 Zn      0.699682355         0.544393837         0.599887490
 Zn      0.699687123         0.210830197         0.266563773
 Zn      0.699737668         0.210934266         0.600042343
 Zn      0.799804270         0.266818464         0.433178365
 Zn      0.799804986         0.600220084         0.099896006
 Zn      0.799806654         0.599952459         0.433129400
 Zn      0.799808741         0.044294231         0.599813461
 Zn      0.799811065         0.266906738         0.100072682
 Zn      0.799814284         0.377693534         0.266822636
 Zn      0.799814403         0.377659947         0.599637866
 Zn      0.799815655         0.044194426         0.266722411
  O      0.000000000         0.266666681         0.227032244
  O      0.000000000         0.266666681         0.560365558
  O      0.000000000         0.266666681         0.893698931
  O      0.000000000         0.600000024         0.227032244
  O      0.000000000         0.600000024         0.560365558
  O      0.000000000         0.600000024         0.893698931
  O      0.000000000         0.933333337         0.227032244
  O      0.000000000         0.933333337         0.560365558
  O      0.000000000         0.933333337         0.893698931
  O      0.000000000         0.044444382         0.393698901
  O      0.000000000         0.044444382         0.727032244
  O      0.000000000         0.044444382         0.060365576
  O      0.000000000         0.377777725         0.393698901
  O      0.000000000         0.377777725         0.727032244
  O      0.000000000         0.377777725         0.060365576
  O      0.000000000         0.711111069         0.393698901
  O      0.000000000         0.711111069         0.727032244
  O      0.000000000         0.711111069         0.060365576
  O      0.100000001         0.100000001         0.893698931
  O      0.100000001         0.433333337         0.893698931
  O      0.100000001         0.766666651         0.227032244
  O      0.100000001         0.766666651         0.560365558
  O      0.100000001         0.766666651         0.893698931
  O      0.100000113         0.211111054         0.727032244
  O      0.100000113         0.544444382         0.727032244
  O      0.100000113         0.877777696         0.393698901
  O      0.100000113         0.877777696         0.727032244
  O      0.100000113         0.877777696         0.060365576
  O      0.200000003         0.266666681         0.893698931
  O      0.200000003         0.600000024         0.893698931
  O      0.200000003         0.933333337         0.227032244
  O      0.200000003         0.933333337         0.560365558
  O      0.200000003         0.933333337         0.893698931
  O      0.200000107         0.044444382         0.727032244
  O      0.200000107         0.377777725         0.727032244
  O      0.200000107         0.711111069         0.393698901
  O      0.200000107         0.711111069         0.727032244
  O      0.200000107         0.711111069         0.060365576
  O      0.300000012         0.100000001         0.893698931
  O      0.300000012         0.433333337         0.893698931
  O      0.300000012         0.766666651         0.227032244
  O      0.300000012         0.766666651         0.560365558
  O      0.300000012         0.766666651         0.893698931
  O      0.300000101         0.211111054         0.727032244
  O      0.300000101         0.544444382         0.727032244
  O      0.300000101         0.877777696         0.393698901
  O      0.300000101         0.877777696         0.727032244
  O      0.300000101         0.877777696         0.060365576
  O      0.400000006         0.266666681         0.893698931
  O      0.400000006         0.600000024         0.893698931
  O      0.400000006         0.933333337         0.227032244
  O      0.400000006         0.933333337         0.560365558
  O      0.400000006         0.933333337         0.893698931
  O      0.400000095         0.044444382         0.727032244
  O      0.400000095         0.377777725         0.727032244
  O      0.400000095         0.711111069         0.393698901
  O      0.400000095         0.711111069         0.727032244
  O      0.400000095         0.711111069         0.060365576
  O      0.500000000         0.100000001         0.893698931
  O      0.500000000         0.433333337         0.893698931
  O      0.500000000         0.766666651         0.227032244
  O      0.500000000         0.766666651         0.560365558
  O      0.500000000         0.766666651         0.893698931
  O      0.500000119         0.211111054         0.727032244
  O      0.500000119         0.544444382         0.727032244
  O      0.500000119         0.877777696         0.393698901
  O      0.500000119         0.877777696         0.727032244
  O      0.500000119         0.877777696         0.060365576
  O      0.600000024         0.266666681         0.893698931
  O      0.600000024         0.600000024         0.893698931
  O      0.600000024         0.933333337         0.227032244
  O      0.600000024         0.933333337         0.560365558
  O      0.600000024         0.933333337         0.893698931
  O      0.600000083         0.044444382         0.727032244
  O      0.600000083         0.377777725         0.727032244
  O      0.600000083         0.711111069         0.393698901
  O      0.600000083         0.711111069         0.727032244
  O      0.600000083         0.711111069         0.060365576
  O      0.699999988         0.100000001         0.893698931
  O      0.699999988         0.433333337         0.893698931
  O      0.699999988         0.766666651         0.227032244
  O      0.699999988         0.766666651         0.560365558
  O      0.699999988         0.766666651         0.893698931
  O      0.700000107         0.211111054         0.727032244
  O      0.700000107         0.544444382         0.727032244
  O      0.700000107         0.877777696         0.393698901
  O      0.700000107         0.877777696         0.727032244
  O      0.700000107         0.877777696         0.060365576
  O      0.800000012         0.266666681         0.893698931
  O      0.800000012         0.600000024         0.893698931
  O      0.800000012         0.933333337         0.227032244
  O      0.800000012         0.933333337         0.560365558
  O      0.800000012         0.933333337         0.893698931
  O      0.800000131         0.044444382         0.727032244
  O      0.800000131         0.377777725         0.727032244
  O      0.800000131         0.711111069         0.393698901
  O      0.800000131         0.711111069         0.727032244
  O      0.800000131         0.711111069         0.060365576
  O      0.899999976         0.100000001         0.227032244
  O      0.899999976         0.100000001         0.560365558
  O      0.899999976         0.100000001         0.893698931
  O      0.899999976         0.433333337         0.227032244
  O      0.899999976         0.433333337         0.560365558
  O      0.899999976         0.433333337         0.893698931
  O      0.899999976         0.766666651         0.227032244
  O      0.899999976         0.766666651         0.560365558
  O      0.899999976         0.766666651         0.893698931
  O      0.900000095         0.211111054         0.393698901
  O      0.900000095         0.211111054         0.727032244
  O      0.900000095         0.211111054         0.060365576
  O      0.900000095         0.544444382         0.393698901
  O      0.900000095         0.544444382         0.727032244
  O      0.900000095         0.544444382         0.060365576
  O      0.900000095         0.877777696         0.393698901
  O      0.900000095         0.877777696         0.727032244
  O      0.900000095         0.877777696         0.060365576
  O      0.099926904         0.211206242         0.060539898
  O      0.099932767         0.544612765         0.060442980
  O      0.100019053         0.099821702         0.560340345
  O      0.100062773         0.099614151         0.227233917
  O      0.100142270         0.433237493         0.560320735
  O      0.100280263         0.433031350         0.227186650
  O      0.100312635         0.544600606         0.393679708
  O      0.100351691         0.211253986         0.393834263
  O      0.199841172         0.266569436         0.226697445
  O      0.199932933         0.266835153         0.560854435
  O      0.200153604         0.044464763         0.060268022
  O      0.200291365         0.599647343         0.560208440
  O      0.200496167         0.599585235         0.227082253
  O      0.200723007         0.378425628         0.060159184
  O      0.201211408         0.044273257         0.394087404
  O      0.202787399         0.378371179         0.394266576
  O      0.299937487         0.543354988         0.060101166
  O      0.299964041         0.100610837         0.227098197
  O      0.300102770         0.100525424         0.560356915
  O      0.300736636         0.211786911         0.060162600
  O      0.301202506         0.432633579         0.556999683
  O      0.301394314         0.541548133         0.394103616
  O      0.301876277         0.213800251         0.394249648
  O      0.302079320         0.431923449         0.229926094
  O      0.399805725         0.377810478         0.060578920
  O      0.399805874         0.044419251         0.393458098
  O      0.399807513         0.269265115         0.229926631
  O      0.399808824         0.044458743         0.060515419
  O      0.399812549         0.268225491         0.557000458
  O      0.399815589         0.599989235         0.226457924
  O      0.399815649         0.599982798         0.560722113
  O      0.497537374         0.431915432         0.229913116
  O      0.497738212         0.213789046         0.394246072
  O      0.498225421         0.541538179         0.394096226
  O      0.498423278         0.432622492         0.556986034
  O      0.498875529         0.211777300         0.060155526
  O      0.499529064         0.100508220         0.560351968
  O      0.499658853         0.100617513         0.227101088
  O      0.499673456         0.543344498         0.060080465
  O      0.596835673         0.378367811         0.394244403
  O      0.598397434         0.044256717         0.394069940
  O      0.598893881         0.378419697         0.060137287
  O      0.599132478         0.599576592         0.227062017
  O      0.599343896         0.599634767         0.560196280
  O      0.599466503         0.044455431         0.060263649
  O      0.599682033         0.266815662         0.560837746
  O      0.599778473         0.266560167         0.226673275
  O      0.699257791         0.211254239         0.393825710
  O      0.699312866         0.544588804         0.393666178
  O      0.699341774         0.433016539         0.227172971
  O      0.699480891         0.433218122         0.560302615
  O      0.699552476         0.099620409         0.227226347
  O      0.699601054         0.099813171         0.560326517
  O      0.699689329         0.544609070         0.060420968
  O      0.699696958         0.211203441         0.060532626
  O      0.799796402         0.044635203         0.393800706
  O      0.799806774         0.044666834         0.060328104
  O      0.799807608         0.266451895         0.560263574
  O      0.799809337         0.599704385         0.227054358
  O      0.799811125         0.266532302         0.227271363
  O      0.799811780         0.377997696         0.060292698
  O      0.799816191         0.599816859         0.560258210
  O      0.799818218         0.378331602         0.394074917


K_POINTS gamma

CELL_PARAMETERS angstrom
 16.245000000000  0.000000000000  0.000000000000
     0.0000000000000000   16.8822992220000003    0.0000000000000000
     0.0000000000000000    0.0000000000000000   15.6146940000000001
